    1C
    1UUSER                                                              
    1UDATE              21.december.2022                                
    1UTIME              11:30:51                                        
    1UHOST                                                              
    1UPGM               CalculiX                                        
    1UVERSION           Version 2.19                             
    1UCOMPILETIME       Sat Dec 18 23:10:56     2021                    
    1UDIR                                                               
    1UDBN                                                               
    1UMAT    1STEEL                                                     
    2C                          4403                                     1
 -1         1 0.00000E+00 0.00000E+00 1.00000E+01
 -1         2 0.00000E+00 0.00000E+00 0.00000E+00
 -1         3 0.00000E+00 1.00000E+01 1.00000E+01
 -1         4 0.00000E+00 1.00000E+01 0.00000E+00
 -1         5 1.00000E+02 0.00000E+00 1.00000E+01
 -1         6 1.00000E+02 0.00000E+00 0.00000E+00
 -1         7 1.00000E+02 1.00000E+01 1.00000E+01
 -1         8 1.00000E+02 1.00000E+01 0.00000E+00
 -1         9 0.00000E+00 0.00000E+00 2.50000E+00
 -1        10 0.00000E+00 0.00000E+00 5.00000E+00
 -1        11 0.00000E+00 0.00000E+00 7.50000E+00
 -1        12 0.00000E+00 0.00000E+00 1.25000E+00
 -1        13 0.00000E+00 0.00000E+00 3.75000E+00
 -1        14 0.00000E+00 0.00000E+00 6.25000E+00
 -1        15 0.00000E+00 0.00000E+00 8.75000E+00
 -1        16 0.00000E+00 2.50000E+00 1.00000E+01
 -1        17 0.00000E+00 5.00000E+00 1.00000E+01
 -1        18 0.00000E+00 7.50000E+00 1.00000E+01
 -1        19 0.00000E+00 1.25000E+00 1.00000E+01
 -1        20 0.00000E+00 3.75000E+00 1.00000E+01
 -1        21 0.00000E+00 6.25000E+00 1.00000E+01
 -1        22 0.00000E+00 8.75000E+00 1.00000E+01
 -1        23 0.00000E+00 1.00000E+01 2.50000E+00
 -1        24 0.00000E+00 1.00000E+01 5.00000E+00
 -1        25 0.00000E+00 1.00000E+01 7.50000E+00
 -1        26 0.00000E+00 1.00000E+01 1.25000E+00
 -1        27 0.00000E+00 1.00000E+01 3.75000E+00
 -1        28 0.00000E+00 1.00000E+01 6.25000E+00
 -1        29 0.00000E+00 1.00000E+01 8.75000E+00
 -1        30 0.00000E+00 2.50000E+00 0.00000E+00
 -1        31 0.00000E+00 5.00000E+00 0.00000E+00
 -1        32 0.00000E+00 7.50000E+00 0.00000E+00
 -1        33 0.00000E+00 1.25000E+00 0.00000E+00
 -1        34 0.00000E+00 3.75000E+00 0.00000E+00
 -1        35 0.00000E+00 6.25000E+00 0.00000E+00
 -1        36 0.00000E+00 8.75000E+00 0.00000E+00
 -1        37 1.00000E+02 0.00000E+00 2.50000E+00
 -1        38 1.00000E+02 0.00000E+00 5.00000E+00
 -1        39 1.00000E+02 0.00000E+00 7.50000E+00
 -1        40 1.00000E+02 0.00000E+00 1.25000E+00
 -1        41 1.00000E+02 0.00000E+00 3.75000E+00
 -1        42 1.00000E+02 0.00000E+00 6.25000E+00
 -1        43 1.00000E+02 0.00000E+00 8.75000E+00
 -1        44 1.00000E+02 2.50000E+00 1.00000E+01
 -1        45 1.00000E+02 5.00000E+00 1.00000E+01
 -1        46 1.00000E+02 7.50000E+00 1.00000E+01
 -1        47 1.00000E+02 1.25000E+00 1.00000E+01
 -1        48 1.00000E+02 3.75000E+00 1.00000E+01
 -1        49 1.00000E+02 6.25000E+00 1.00000E+01
 -1        50 1.00000E+02 8.75000E+00 1.00000E+01
 -1        51 1.00000E+02 1.00000E+01 2.50000E+00
 -1        52 1.00000E+02 1.00000E+01 5.00000E+00
 -1        53 1.00000E+02 1.00000E+01 7.50000E+00
 -1        54 1.00000E+02 1.00000E+01 1.25000E+00
 -1        55 1.00000E+02 1.00000E+01 3.75000E+00
 -1        56 1.00000E+02 1.00000E+01 6.25000E+00
 -1        57 1.00000E+02 1.00000E+01 8.75000E+00
 -1        58 1.00000E+02 2.50000E+00 0.00000E+00
 -1        59 1.00000E+02 5.00000E+00 0.00000E+00
 -1        60 1.00000E+02 7.50000E+00 0.00000E+00
 -1        61 1.00000E+02 1.25000E+00 0.00000E+00
 -1        62 1.00000E+02 3.75000E+00 0.00000E+00
 -1        63 1.00000E+02 6.25000E+00 0.00000E+00
 -1        64 1.00000E+02 8.75000E+00 0.00000E+00
 -1        65 2.94118E+00 0.00000E+00 0.00000E+00
 -1        66 5.88235E+00 0.00000E+00 0.00000E+00
 -1        67 8.82353E+00 0.00000E+00 0.00000E+00
 -1        68 1.17647E+01 0.00000E+00 0.00000E+00
 -1        69 1.47059E+01 0.00000E+00 0.00000E+00
 -1        70 1.76471E+01 0.00000E+00 0.00000E+00
 -1        71 2.05882E+01 0.00000E+00 0.00000E+00
 -1        72 2.35294E+01 0.00000E+00 0.00000E+00
 -1        73 2.64706E+01 0.00000E+00 0.00000E+00
 -1        74 2.94118E+01 0.00000E+00 0.00000E+00
 -1        75 3.23529E+01 0.00000E+00 0.00000E+00
 -1        76 3.52941E+01 0.00000E+00 0.00000E+00
 -1        77 3.82353E+01 0.00000E+00 0.00000E+00
 -1        78 4.11765E+01 0.00000E+00 0.00000E+00
 -1        79 4.41176E+01 0.00000E+00 0.00000E+00
 -1        80 4.70588E+01 0.00000E+00 0.00000E+00
 -1        81 5.00000E+01 0.00000E+00 0.00000E+00
 -1        82 5.29412E+01 0.00000E+00 0.00000E+00
 -1        83 5.58824E+01 0.00000E+00 0.00000E+00
 -1        84 5.88235E+01 0.00000E+00 0.00000E+00
 -1        85 6.17647E+01 0.00000E+00 0.00000E+00
 -1        86 6.47059E+01 0.00000E+00 0.00000E+00
 -1        87 6.76471E+01 0.00000E+00 0.00000E+00
 -1        88 7.05882E+01 0.00000E+00 0.00000E+00
 -1        89 7.35294E+01 0.00000E+00 0.00000E+00
 -1        90 7.64706E+01 0.00000E+00 0.00000E+00
 -1        91 7.94118E+01 0.00000E+00 0.00000E+00
 -1        92 8.23529E+01 0.00000E+00 0.00000E+00
 -1        93 8.52941E+01 0.00000E+00 0.00000E+00
 -1        94 8.82353E+01 0.00000E+00 0.00000E+00
 -1        95 9.11765E+01 0.00000E+00 0.00000E+00
 -1        96 9.41176E+01 0.00000E+00 0.00000E+00
 -1        97 9.70588E+01 0.00000E+00 0.00000E+00
 -1        98 1.47059E+00 0.00000E+00 0.00000E+00
 -1        99 4.41176E+00 0.00000E+00 0.00000E+00
 -1       100 7.35294E+00 0.00000E+00 0.00000E+00
 -1       101 1.02941E+01 0.00000E+00 0.00000E+00
 -1       102 1.32353E+01 0.00000E+00 0.00000E+00
 -1       103 1.61765E+01 0.00000E+00 0.00000E+00
 -1       104 1.91176E+01 0.00000E+00 0.00000E+00
 -1       105 2.20588E+01 0.00000E+00 0.00000E+00
 -1       106 2.50000E+01 0.00000E+00 0.00000E+00
 -1       107 2.79412E+01 0.00000E+00 0.00000E+00
 -1       108 3.08824E+01 0.00000E+00 0.00000E+00
 -1       109 3.38235E+01 0.00000E+00 0.00000E+00
 -1       110 3.67647E+01 0.00000E+00 0.00000E+00
 -1       111 3.97059E+01 0.00000E+00 0.00000E+00
 -1       112 4.26471E+01 0.00000E+00 0.00000E+00
 -1       113 4.55882E+01 0.00000E+00 0.00000E+00
 -1       114 4.85294E+01 0.00000E+00 0.00000E+00
 -1       115 5.14706E+01 0.00000E+00 0.00000E+00
 -1       116 5.44118E+01 0.00000E+00 0.00000E+00
 -1       117 5.73529E+01 0.00000E+00 0.00000E+00
 -1       118 6.02941E+01 0.00000E+00 0.00000E+00
 -1       119 6.32353E+01 0.00000E+00 0.00000E+00
 -1       120 6.61765E+01 0.00000E+00 0.00000E+00
 -1       121 6.91176E+01 0.00000E+00 0.00000E+00
 -1       122 7.20588E+01 0.00000E+00 0.00000E+00
 -1       123 7.50000E+01 0.00000E+00 0.00000E+00
 -1       124 7.79412E+01 0.00000E+00 0.00000E+00
 -1       125 8.08824E+01 0.00000E+00 0.00000E+00
 -1       126 8.38235E+01 0.00000E+00 0.00000E+00
 -1       127 8.67647E+01 0.00000E+00 0.00000E+00
 -1       128 8.97059E+01 0.00000E+00 0.00000E+00
 -1       129 9.26471E+01 0.00000E+00 0.00000E+00
 -1       130 9.55882E+01 0.00000E+00 0.00000E+00
 -1       131 9.85294E+01 0.00000E+00 0.00000E+00
 -1       132 2.94118E+00 0.00000E+00 1.00000E+01
 -1       133 5.88235E+00 0.00000E+00 1.00000E+01
 -1       134 8.82353E+00 0.00000E+00 1.00000E+01
 -1       135 1.17647E+01 0.00000E+00 1.00000E+01
 -1       136 1.47059E+01 0.00000E+00 1.00000E+01
 -1       137 1.76471E+01 0.00000E+00 1.00000E+01
 -1       138 2.05882E+01 0.00000E+00 1.00000E+01
 -1       139 2.35294E+01 0.00000E+00 1.00000E+01
 -1       140 2.64706E+01 0.00000E+00 1.00000E+01
 -1       141 2.94118E+01 0.00000E+00 1.00000E+01
 -1       142 3.23529E+01 0.00000E+00 1.00000E+01
 -1       143 3.52941E+01 0.00000E+00 1.00000E+01
 -1       144 3.82353E+01 0.00000E+00 1.00000E+01
 -1       145 4.11765E+01 0.00000E+00 1.00000E+01
 -1       146 4.41176E+01 0.00000E+00 1.00000E+01
 -1       147 4.70588E+01 0.00000E+00 1.00000E+01
 -1       148 5.00000E+01 0.00000E+00 1.00000E+01
 -1       149 5.29412E+01 0.00000E+00 1.00000E+01
 -1       150 5.58824E+01 0.00000E+00 1.00000E+01
 -1       151 5.88235E+01 0.00000E+00 1.00000E+01
 -1       152 6.17647E+01 0.00000E+00 1.00000E+01
 -1       153 6.47059E+01 0.00000E+00 1.00000E+01
 -1       154 6.76471E+01 0.00000E+00 1.00000E+01
 -1       155 7.05882E+01 0.00000E+00 1.00000E+01
 -1       156 7.35294E+01 0.00000E+00 1.00000E+01
 -1       157 7.64706E+01 0.00000E+00 1.00000E+01
 -1       158 7.94118E+01 0.00000E+00 1.00000E+01
 -1       159 8.23529E+01 0.00000E+00 1.00000E+01
 -1       160 8.52941E+01 0.00000E+00 1.00000E+01
 -1       161 8.82353E+01 0.00000E+00 1.00000E+01
 -1       162 9.11765E+01 0.00000E+00 1.00000E+01
 -1       163 9.41176E+01 0.00000E+00 1.00000E+01
 -1       164 9.70588E+01 0.00000E+00 1.00000E+01
 -1       165 1.47059E+00 0.00000E+00 1.00000E+01
 -1       166 4.41176E+00 0.00000E+00 1.00000E+01
 -1       167 7.35294E+00 0.00000E+00 1.00000E+01
 -1       168 1.02941E+01 0.00000E+00 1.00000E+01
 -1       169 1.32353E+01 0.00000E+00 1.00000E+01
 -1       170 1.61765E+01 0.00000E+00 1.00000E+01
 -1       171 1.91176E+01 0.00000E+00 1.00000E+01
 -1       172 2.20588E+01 0.00000E+00 1.00000E+01
 -1       173 2.50000E+01 0.00000E+00 1.00000E+01
 -1       174 2.79412E+01 0.00000E+00 1.00000E+01
 -1       175 3.08824E+01 0.00000E+00 1.00000E+01
 -1       176 3.38235E+01 0.00000E+00 1.00000E+01
 -1       177 3.67647E+01 0.00000E+00 1.00000E+01
 -1       178 3.97059E+01 0.00000E+00 1.00000E+01
 -1       179 4.26471E+01 0.00000E+00 1.00000E+01
 -1       180 4.55882E+01 0.00000E+00 1.00000E+01
 -1       181 4.85294E+01 0.00000E+00 1.00000E+01
 -1       182 5.14706E+01 0.00000E+00 1.00000E+01
 -1       183 5.44118E+01 0.00000E+00 1.00000E+01
 -1       184 5.73529E+01 0.00000E+00 1.00000E+01
 -1       185 6.02941E+01 0.00000E+00 1.00000E+01
 -1       186 6.32353E+01 0.00000E+00 1.00000E+01
 -1       187 6.61765E+01 0.00000E+00 1.00000E+01
 -1       188 6.91176E+01 0.00000E+00 1.00000E+01
 -1       189 7.20588E+01 0.00000E+00 1.00000E+01
 -1       190 7.50000E+01 0.00000E+00 1.00000E+01
 -1       191 7.79412E+01 0.00000E+00 1.00000E+01
 -1       192 8.08824E+01 0.00000E+00 1.00000E+01
 -1       193 8.38235E+01 0.00000E+00 1.00000E+01
 -1       194 8.67647E+01 0.00000E+00 1.00000E+01
 -1       195 8.97059E+01 0.00000E+00 1.00000E+01
 -1       196 9.26471E+01 0.00000E+00 1.00000E+01
 -1       197 9.55882E+01 0.00000E+00 1.00000E+01
 -1       198 9.85294E+01 0.00000E+00 1.00000E+01
 -1       199 2.94118E+00 1.00000E+01 0.00000E+00
 -1       200 5.88235E+00 1.00000E+01 0.00000E+00
 -1       201 8.82353E+00 1.00000E+01 0.00000E+00
 -1       202 1.17647E+01 1.00000E+01 0.00000E+00
 -1       203 1.47059E+01 1.00000E+01 0.00000E+00
 -1       204 1.76471E+01 1.00000E+01 0.00000E+00
 -1       205 2.05882E+01 1.00000E+01 0.00000E+00
 -1       206 2.35294E+01 1.00000E+01 0.00000E+00
 -1       207 2.64706E+01 1.00000E+01 0.00000E+00
 -1       208 2.94118E+01 1.00000E+01 0.00000E+00
 -1       209 3.23529E+01 1.00000E+01 0.00000E+00
 -1       210 3.52941E+01 1.00000E+01 0.00000E+00
 -1       211 3.82353E+01 1.00000E+01 0.00000E+00
 -1       212 4.11765E+01 1.00000E+01 0.00000E+00
 -1       213 4.41176E+01 1.00000E+01 0.00000E+00
 -1       214 4.70588E+01 1.00000E+01 0.00000E+00
 -1       215 5.00000E+01 1.00000E+01 0.00000E+00
 -1       216 5.29412E+01 1.00000E+01 0.00000E+00
 -1       217 5.58824E+01 1.00000E+01 0.00000E+00
 -1       218 5.88235E+01 1.00000E+01 0.00000E+00
 -1       219 6.17647E+01 1.00000E+01 0.00000E+00
 -1       220 6.47059E+01 1.00000E+01 0.00000E+00
 -1       221 6.76471E+01 1.00000E+01 0.00000E+00
 -1       222 7.05882E+01 1.00000E+01 0.00000E+00
 -1       223 7.35294E+01 1.00000E+01 0.00000E+00
 -1       224 7.64706E+01 1.00000E+01 0.00000E+00
 -1       225 7.94118E+01 1.00000E+01 0.00000E+00
 -1       226 8.23529E+01 1.00000E+01 0.00000E+00
 -1       227 8.52941E+01 1.00000E+01 0.00000E+00
 -1       228 8.82353E+01 1.00000E+01 0.00000E+00
 -1       229 9.11765E+01 1.00000E+01 0.00000E+00
 -1       230 9.41176E+01 1.00000E+01 0.00000E+00
 -1       231 9.70588E+01 1.00000E+01 0.00000E+00
 -1       232 1.47059E+00 1.00000E+01 0.00000E+00
 -1       233 4.41176E+00 1.00000E+01 0.00000E+00
 -1       234 7.35294E+00 1.00000E+01 0.00000E+00
 -1       235 1.02941E+01 1.00000E+01 0.00000E+00
 -1       236 1.32353E+01 1.00000E+01 0.00000E+00
 -1       237 1.61765E+01 1.00000E+01 0.00000E+00
 -1       238 1.91176E+01 1.00000E+01 0.00000E+00
 -1       239 2.20588E+01 1.00000E+01 0.00000E+00
 -1       240 2.50000E+01 1.00000E+01 0.00000E+00
 -1       241 2.79412E+01 1.00000E+01 0.00000E+00
 -1       242 3.08824E+01 1.00000E+01 0.00000E+00
 -1       243 3.38235E+01 1.00000E+01 0.00000E+00
 -1       244 3.67647E+01 1.00000E+01 0.00000E+00
 -1       245 3.97059E+01 1.00000E+01 0.00000E+00
 -1       246 4.26471E+01 1.00000E+01 0.00000E+00
 -1       247 4.55882E+01 1.00000E+01 0.00000E+00
 -1       248 4.85294E+01 1.00000E+01 0.00000E+00
 -1       249 5.14706E+01 1.00000E+01 0.00000E+00
 -1       250 5.44118E+01 1.00000E+01 0.00000E+00
 -1       251 5.73529E+01 1.00000E+01 0.00000E+00
 -1       252 6.02941E+01 1.00000E+01 0.00000E+00
 -1       253 6.32353E+01 1.00000E+01 0.00000E+00
 -1       254 6.61765E+01 1.00000E+01 0.00000E+00
 -1       255 6.91176E+01 1.00000E+01 0.00000E+00
 -1       256 7.20588E+01 1.00000E+01 0.00000E+00
 -1       257 7.50000E+01 1.00000E+01 0.00000E+00
 -1       258 7.79412E+01 1.00000E+01 0.00000E+00
 -1       259 8.08824E+01 1.00000E+01 0.00000E+00
 -1       260 8.38235E+01 1.00000E+01 0.00000E+00
 -1       261 8.67647E+01 1.00000E+01 0.00000E+00
 -1       262 8.97059E+01 1.00000E+01 0.00000E+00
 -1       263 9.26471E+01 1.00000E+01 0.00000E+00
 -1       264 9.55882E+01 1.00000E+01 0.00000E+00
 -1       265 9.85294E+01 1.00000E+01 0.00000E+00
 -1       266 2.94118E+00 1.00000E+01 1.00000E+01
 -1       267 5.88235E+00 1.00000E+01 1.00000E+01
 -1       268 8.82353E+00 1.00000E+01 1.00000E+01
 -1       269 1.17647E+01 1.00000E+01 1.00000E+01
 -1       270 1.47059E+01 1.00000E+01 1.00000E+01
 -1       271 1.76471E+01 1.00000E+01 1.00000E+01
 -1       272 2.05882E+01 1.00000E+01 1.00000E+01
 -1       273 2.35294E+01 1.00000E+01 1.00000E+01
 -1       274 2.64706E+01 1.00000E+01 1.00000E+01
 -1       275 2.94118E+01 1.00000E+01 1.00000E+01
 -1       276 3.23529E+01 1.00000E+01 1.00000E+01
 -1       277 3.52941E+01 1.00000E+01 1.00000E+01
 -1       278 3.82353E+01 1.00000E+01 1.00000E+01
 -1       279 4.11765E+01 1.00000E+01 1.00000E+01
 -1       280 4.41176E+01 1.00000E+01 1.00000E+01
 -1       281 4.70588E+01 1.00000E+01 1.00000E+01
 -1       282 5.00000E+01 1.00000E+01 1.00000E+01
 -1       283 5.29412E+01 1.00000E+01 1.00000E+01
 -1       284 5.58824E+01 1.00000E+01 1.00000E+01
 -1       285 5.88235E+01 1.00000E+01 1.00000E+01
 -1       286 6.17647E+01 1.00000E+01 1.00000E+01
 -1       287 6.47059E+01 1.00000E+01 1.00000E+01
 -1       288 6.76471E+01 1.00000E+01 1.00000E+01
 -1       289 7.05882E+01 1.00000E+01 1.00000E+01
 -1       290 7.35294E+01 1.00000E+01 1.00000E+01
 -1       291 7.64706E+01 1.00000E+01 1.00000E+01
 -1       292 7.94118E+01 1.00000E+01 1.00000E+01
 -1       293 8.23529E+01 1.00000E+01 1.00000E+01
 -1       294 8.52941E+01 1.00000E+01 1.00000E+01
 -1       295 8.82353E+01 1.00000E+01 1.00000E+01
 -1       296 9.11765E+01 1.00000E+01 1.00000E+01
 -1       297 9.41176E+01 1.00000E+01 1.00000E+01
 -1       298 9.70588E+01 1.00000E+01 1.00000E+01
 -1       299 1.47059E+00 1.00000E+01 1.00000E+01
 -1       300 4.41176E+00 1.00000E+01 1.00000E+01
 -1       301 7.35294E+00 1.00000E+01 1.00000E+01
 -1       302 1.02941E+01 1.00000E+01 1.00000E+01
 -1       303 1.32353E+01 1.00000E+01 1.00000E+01
 -1       304 1.61765E+01 1.00000E+01 1.00000E+01
 -1       305 1.91176E+01 1.00000E+01 1.00000E+01
 -1       306 2.20588E+01 1.00000E+01 1.00000E+01
 -1       307 2.50000E+01 1.00000E+01 1.00000E+01
 -1       308 2.79412E+01 1.00000E+01 1.00000E+01
 -1       309 3.08824E+01 1.00000E+01 1.00000E+01
 -1       310 3.38235E+01 1.00000E+01 1.00000E+01
 -1       311 3.67647E+01 1.00000E+01 1.00000E+01
 -1       312 3.97059E+01 1.00000E+01 1.00000E+01
 -1       313 4.26471E+01 1.00000E+01 1.00000E+01
 -1       314 4.55882E+01 1.00000E+01 1.00000E+01
 -1       315 4.85294E+01 1.00000E+01 1.00000E+01
 -1       316 5.14706E+01 1.00000E+01 1.00000E+01
 -1       317 5.44118E+01 1.00000E+01 1.00000E+01
 -1       318 5.73529E+01 1.00000E+01 1.00000E+01
 -1       319 6.02941E+01 1.00000E+01 1.00000E+01
 -1       320 6.32353E+01 1.00000E+01 1.00000E+01
 -1       321 6.61765E+01 1.00000E+01 1.00000E+01
 -1       322 6.91176E+01 1.00000E+01 1.00000E+01
 -1       323 7.20588E+01 1.00000E+01 1.00000E+01
 -1       324 7.50000E+01 1.00000E+01 1.00000E+01
 -1       325 7.79412E+01 1.00000E+01 1.00000E+01
 -1       326 8.08824E+01 1.00000E+01 1.00000E+01
 -1       327 8.38235E+01 1.00000E+01 1.00000E+01
 -1       328 8.67647E+01 1.00000E+01 1.00000E+01
 -1       329 8.97059E+01 1.00000E+01 1.00000E+01
 -1       330 9.26471E+01 1.00000E+01 1.00000E+01
 -1       331 9.55882E+01 1.00000E+01 1.00000E+01
 -1       332 9.85294E+01 1.00000E+01 1.00000E+01
 -1       333 0.00000E+00 7.74295E+00 6.17092E+00
 -1       334 0.00000E+00 2.10924E+00 6.15331E+00
 -1       335 0.00000E+00 6.40810E+00 1.97677E+00
 -1       336 0.00000E+00 2.11354E+00 3.75472E+00
 -1       337 0.00000E+00 4.04759E+00 4.96932E+00
 -1       338 0.00000E+00 3.94237E+00 7.69540E+00
 -1       339 0.00000E+00 8.05355E+00 3.59023E+00
 -1       340 0.00000E+00 3.93029E+00 2.23528E+00
 -1       341 0.00000E+00 6.31206E+00 8.18495E+00
 -1       342 0.00000E+00 5.68066E+00 6.22631E+00
 -1       343 0.00000E+00 1.83013E+00 8.16987E+00
 -1       344 0.00000E+00 8.16987E+00 1.83013E+00
 -1       345 0.00000E+00 1.83013E+00 1.83013E+00
 -1       346 0.00000E+00 8.18492E+00 8.18492E+00
 -1       347 0.00000E+00 6.00040E+00 4.06359E+00
 -1       348 0.00000E+00 9.15064E-01 9.08494E+00
 -1       349 0.00000E+00 9.15064E-01 7.83494E+00
 -1       350 0.00000E+00 2.16506E+00 9.08494E+00
 -1       351 0.00000E+00 9.15064E-01 2.16506E+00
 -1       352 0.00000E+00 9.15064E-01 9.15064E-01
 -1       353 0.00000E+00 2.16506E+00 9.15064E-01
 -1       354 0.00000E+00 9.09246E+00 9.09246E+00
 -1       355 0.00000E+00 7.84246E+00 9.09246E+00
 -1       356 0.00000E+00 9.09246E+00 7.84246E+00
 -1       357 0.00000E+00 9.08494E+00 9.15064E-01
 -1       358 0.00000E+00 9.08494E+00 2.16506E+00
 -1       359 0.00000E+00 7.83494E+00 9.15064E-01
 -1       360 0.00000E+00 1.05677E+00 4.37736E+00
 -1       361 0.00000E+00 1.05677E+00 3.12736E+00
 -1       362 0.00000E+00 1.97183E+00 2.79242E+00
 -1       363 0.00000E+00 1.05462E+00 6.82666E+00
 -1       364 0.00000E+00 1.05462E+00 5.57666E+00
 -1       365 0.00000E+00 2.11139E+00 4.95402E+00
 -1       366 0.00000E+00 1.96968E+00 7.16159E+00
 -1       367 0.00000E+00 4.47118E+00 8.84770E+00
 -1       368 0.00000E+00 3.22118E+00 8.84770E+00
 -1       369 0.00000E+00 2.88625E+00 7.93264E+00
 -1       370 0.00000E+00 6.90603E+00 9.09248E+00
 -1       371 0.00000E+00 5.65603E+00 9.09248E+00
 -1       372 0.00000E+00 5.12722E+00 7.94018E+00
 -1       373 0.00000E+00 7.24849E+00 8.18494E+00
 -1       374 0.00000E+00 9.02678E+00 3.04512E+00
 -1       375 0.00000E+00 9.02678E+00 4.29512E+00
 -1       376 0.00000E+00 8.11171E+00 2.71018E+00
 -1       377 0.00000E+00 8.87148E+00 5.58546E+00
 -1       378 0.00000E+00 8.87148E+00 6.83546E+00
 -1       379 0.00000E+00 7.89825E+00 4.88058E+00
 -1       380 0.00000E+00 7.96394E+00 7.17792E+00
 -1       381 0.00000E+00 3.21515E+00 1.11764E+00
 -1       382 0.00000E+00 4.46515E+00 1.11764E+00
 -1       383 0.00000E+00 2.88021E+00 2.03271E+00
 -1       384 0.00000E+00 5.70405E+00 9.88383E-01
 -1       385 0.00000E+00 6.95405E+00 9.88383E-01
 -1       386 0.00000E+00 5.16919E+00 2.10602E+00
 -1       387 0.00000E+00 7.28899E+00 1.90345E+00
 -1       388 0.00000E+00 7.02698E+00 3.82691E+00
 -1       389 0.00000E+00 6.87168E+00 5.11725E+00
 -1       390 0.00000E+00 7.02751E+00 7.17794E+00
 -1       391 0.00000E+00 6.71181E+00 6.19861E+00
 -1       392 0.00000E+00 5.99636E+00 7.20563E+00
 -1       393 0.00000E+00 5.84053E+00 5.14495E+00
 -1       394 0.00000E+00 3.07841E+00 5.56131E+00
 -1       395 0.00000E+00 3.08056E+00 4.36202E+00
 -1       396 0.00000E+00 3.02580E+00 6.92436E+00
 -1       397 0.00000E+00 3.99498E+00 6.33236E+00
 -1       398 0.00000E+00 7.23083E+00 2.78350E+00
 -1       399 0.00000E+00 6.20425E+00 3.02018E+00
 -1       400 0.00000E+00 4.96535E+00 3.14944E+00
 -1       401 0.00000E+00 3.98894E+00 3.60230E+00
 -1       402 0.00000E+00 3.02192E+00 2.99500E+00
 -1       403 0.00000E+00 4.81151E+00 6.96086E+00
 -1       404 0.00000E+00 4.86412E+00 5.59781E+00
 -1       405 0.00000E+00 5.02400E+00 4.51645E+00
 -1       406 1.00000E+02 6.17092E+00 7.74295E+00
 -1       407 1.00000E+02 6.15331E+00 2.10924E+00
 -1       408 1.00000E+02 1.97677E+00 6.40810E+00
 -1       409 1.00000E+02 3.75472E+00 2.11354E+00
 -1       410 1.00000E+02 4.96932E+00 4.04759E+00
 -1       411 1.00000E+02 7.69540E+00 3.94237E+00
 -1       412 1.00000E+02 3.59023E+00 8.05355E+00
 -1       413 1.00000E+02 2.23528E+00 3.93029E+00
 -1       414 1.00000E+02 8.18495E+00 6.31206E+00
 -1       415 1.00000E+02 6.22631E+00 5.68066E+00
 -1       416 1.00000E+02 1.83013E+00 8.16987E+00
 -1       417 1.00000E+02 8.16987E+00 1.83013E+00
 -1       418 1.00000E+02 1.83013E+00 1.83013E+00
 -1       419 1.00000E+02 8.18492E+00 8.18492E+00
 -1       420 1.00000E+02 4.06359E+00 6.00040E+00
 -1       421 1.00000E+02 9.15064E-01 7.83494E+00
 -1       422 1.00000E+02 9.15064E-01 9.08494E+00
 -1       423 1.00000E+02 2.16506E+00 9.08494E+00
 -1       424 1.00000E+02 9.15064E-01 9.15064E-01
 -1       425 1.00000E+02 9.15064E-01 2.16506E+00
 -1       426 1.00000E+02 2.16506E+00 9.15064E-01
 -1       427 1.00000E+02 7.84246E+00 9.09246E+00
 -1       428 1.00000E+02 9.09246E+00 9.09246E+00
 -1       429 1.00000E+02 9.09246E+00 7.84246E+00
 -1       430 1.00000E+02 9.08494E+00 2.16506E+00
 -1       431 1.00000E+02 9.08494E+00 9.15064E-01
 -1       432 1.00000E+02 7.83494E+00 9.15064E-01
 -1       433 1.00000E+02 1.11764E+00 3.21515E+00
 -1       434 1.00000E+02 1.11764E+00 4.46515E+00
 -1       435 1.00000E+02 2.03271E+00 2.88021E+00
 -1       436 1.00000E+02 9.88383E-01 5.70405E+00
 -1       437 1.00000E+02 9.88383E-01 6.95405E+00
 -1       438 1.00000E+02 2.10602E+00 5.16919E+00
 -1       439 1.00000E+02 1.90345E+00 7.28899E+00
 -1       440 1.00000E+02 3.04512E+00 9.02678E+00
 -1       441 1.00000E+02 4.29512E+00 9.02678E+00
 -1       442 1.00000E+02 2.71018E+00 8.11171E+00
 -1       443 1.00000E+02 5.58546E+00 8.87148E+00
 -1       444 1.00000E+02 6.83546E+00 8.87148E+00
 -1       445 1.00000E+02 4.88058E+00 7.89825E+00
 -1       446 1.00000E+02 7.17792E+00 7.96394E+00
 -1       447 1.00000E+02 8.84770E+00 4.47118E+00
 -1       448 1.00000E+02 8.84770E+00 3.22118E+00
 -1       449 1.00000E+02 7.93264E+00 2.88625E+00
 -1       450 1.00000E+02 9.09248E+00 6.90603E+00
 -1       451 1.00000E+02 9.09248E+00 5.65603E+00
 -1       452 1.00000E+02 7.94018E+00 5.12722E+00
 -1       453 1.00000E+02 8.18494E+00 7.24849E+00
 -1       454 1.00000E+02 4.37736E+00 1.05677E+00
 -1       455 1.00000E+02 3.12736E+00 1.05677E+00
 -1       456 1.00000E+02 2.79242E+00 1.97183E+00
 -1       457 1.00000E+02 6.82666E+00 1.05462E+00
 -1       458 1.00000E+02 5.57666E+00 1.05462E+00
 -1       459 1.00000E+02 4.95402E+00 2.11139E+00
 -1       460 1.00000E+02 7.16159E+00 1.96968E+00
 -1       461 1.00000E+02 3.82691E+00 7.02698E+00
 -1       462 1.00000E+02 5.11725E+00 6.87168E+00
 -1       463 1.00000E+02 6.19861E+00 6.71181E+00
 -1       464 1.00000E+02 7.20563E+00 5.99636E+00
 -1       465 1.00000E+02 7.17794E+00 7.02751E+00
 -1       466 1.00000E+02 5.14495E+00 5.84053E+00
 -1       467 1.00000E+02 5.56131E+00 3.07841E+00
 -1       468 1.00000E+02 4.36202E+00 3.08056E+00
 -1       469 1.00000E+02 6.92436E+00 3.02580E+00
 -1       470 1.00000E+02 6.33236E+00 3.99498E+00
 -1       471 1.00000E+02 2.78350E+00 7.23083E+00
 -1       472 1.00000E+02 3.02018E+00 6.20425E+00
 -1       473 1.00000E+02 3.14944E+00 4.96535E+00
 -1       474 1.00000E+02 3.60230E+00 3.98894E+00
 -1       475 1.00000E+02 2.99500E+00 3.02192E+00
 -1       476 1.00000E+02 6.96086E+00 4.81151E+00
 -1       477 1.00000E+02 5.59781E+00 4.86412E+00
 -1       478 1.00000E+02 4.51645E+00 5.02400E+00
 -1       479 6.91176E+01 0.00000E+00 2.54713E+00
 -1       480 8.08824E+01 0.00000E+00 2.54713E+00
 -1       481 9.26167E+01 0.00000E+00 7.50182E+00
 -1       482 5.73529E+01 0.00000E+00 2.54713E+00
 -1       483 6.32353E+01 0.00000E+00 7.45287E+00
 -1       484 7.50000E+01 0.00000E+00 7.45287E+00
 -1       485 8.67647E+01 0.00000E+00 7.45287E+00
 -1       486 5.14706E+01 0.00000E+00 7.45287E+00
 -1       487 1.61730E+01 0.00000E+00 2.53257E+00
 -1       488 2.20588E+01 0.00000E+00 2.54713E+00
 -1       489 1.02941E+01 0.00000E+00 7.45287E+00
 -1       490 3.38235E+01 0.00000E+00 2.54713E+00
 -1       491 4.26337E+01 0.00000E+00 2.53943E+00
 -1       492 2.79412E+01 0.00000E+00 2.54713E+00
 -1       493 4.27451E+00 0.00000E+00 7.42376E+00
 -1       494 7.35294E+00 0.00000E+00 2.54713E+00
 -1       495 9.57256E+01 0.00000E+00 2.57616E+00
 -1       496 4.85294E+01 0.00000E+00 2.54713E+00
 -1       497 8.97059E+01 0.00000E+00 2.54713E+00
 -1       498 1.91176E+01 0.00000E+00 7.45287E+00
 -1       499 3.67647E+01 0.00000E+00 7.45287E+00
 -1       500 4.55787E+01 0.00000E+00 7.49225E+00
 -1       501 2.50000E+01 0.00000E+00 7.45287E+00
 -1       502 3.08824E+01 0.00000E+00 7.45287E+00
 -1       503 2.07630E+00 0.00000E+00 3.82131E+00
 -1       504 9.79237E+01 0.00000E+00 6.17869E+00
 -1       505 6.91176E+01 0.00000E+00 7.45287E+00
 -1       506 8.08824E+01 0.00000E+00 7.45287E+00
 -1       507 5.73529E+01 0.00000E+00 7.45287E+00
 -1       508 6.32353E+01 0.00000E+00 2.54713E+00
 -1       509 7.50000E+01 0.00000E+00 2.54713E+00
 -1       510 7.34125E+00 0.00000E+00 7.46642E+00
 -1       511 1.02802E+01 0.00000E+00 2.53912E+00
 -1       512 1.32273E+01 0.00000E+00 2.52647E+00
 -1       513 1.46991E+01 0.00000E+00 5.00827E+00
 -1       514 9.26593E+01 0.00000E+00 2.53322E+00
 -1       515 7.20588E+01 0.00000E+00 2.54713E+00
 -1       516 7.20588E+01 0.00000E+00 7.45287E+00
 -1       517 4.85286E+01 0.00000E+00 7.47225E+00
 -1       518 5.14706E+01 0.00000E+00 2.54713E+00
 -1       519 6.02941E+01 0.00000E+00 7.45287E+00
 -1       520 6.02941E+01 0.00000E+00 2.54713E+00
 -1       521 2.50000E+01 0.00000E+00 2.54713E+00
 -1       522 3.67647E+01 0.00000E+00 2.54713E+00
 -1       523 3.97037E+01 0.00000E+00 2.53013E+00
 -1       524 4.11472E+01 0.00000E+00 5.02730E+00
 -1       525 3.38235E+01 0.00000E+00 7.45287E+00
 -1       526 7.79412E+01 0.00000E+00 7.45287E+00
 -1       527 7.79412E+01 0.00000E+00 2.54713E+00
 -1       528 4.55727E+01 0.00000E+00 2.52243E+00
 -1       529 8.97059E+01 0.00000E+00 7.45287E+00
 -1       530 8.67647E+01 0.00000E+00 2.54713E+00
 -1       531 2.79412E+01 0.00000E+00 7.45287E+00
 -1       532 2.20588E+01 0.00000E+00 7.45287E+00
 -1       533 8.38235E+01 0.00000E+00 2.54713E+00
 -1       534 1.91175E+01 0.00000E+00 2.53832E+00
 -1       535 8.38235E+01 0.00000E+00 7.45287E+00
 -1       536 5.44118E+01 0.00000E+00 2.54713E+00
 -1       537 3.08824E+01 0.00000E+00 2.54713E+00
 -1       538 5.44118E+01 0.00000E+00 7.45287E+00
 -1       539 6.61765E+01 0.00000E+00 2.54713E+00
 -1       540 6.61765E+01 0.00000E+00 7.45287E+00
 -1       541 6.03343E+00 0.00000E+00 4.97977E+00
 -1       542 8.82332E+00 0.00000E+00 5.00000E+00
 -1       543 1.62315E+01 0.00000E+00 7.49741E+00
 -1       544 2.16506E+00 0.00000E+00 6.25000E+00
 -1       545 3.97010E+01 0.00000E+00 7.50455E+00
 -1       546 4.41064E+01 0.00000E+00 5.02143E+00
 -1       547 9.39618E+01 0.00000E+00 5.02821E+00
 -1       548 1.31760E+01 0.00000E+00 7.49777E+00
 -1       549 9.11697E+01 0.00000E+00 5.00229E+00
 -1       550 1.76471E+01 0.00000E+00 4.99998E+00
 -1       551 7.94118E+01 0.00000E+00 5.00000E+00
 -1       552 7.64706E+01 0.00000E+00 5.00000E+00
 -1       553 6.47059E+01 0.00000E+00 5.00000E+00
 -1       554 8.23529E+01 0.00000E+00 5.00000E+00
 -1       555 5.58824E+01 0.00000E+00 5.00000E+00
 -1       556 6.76471E+01 0.00000E+00 5.00000E+00
 -1       557 6.17647E+01 0.00000E+00 5.00000E+00
 -1       558 5.88235E+01 0.00000E+00 5.00000E+00
 -1       559 8.82353E+01 0.00000E+00 5.00000E+00
 -1       560 8.52941E+01 0.00000E+00 5.00000E+00
 -1       561 7.35294E+01 0.00000E+00 5.00000E+00
 -1       562 5.29412E+01 0.00000E+00 5.00000E+00
 -1       563 4.70526E+01 0.00000E+00 5.00925E+00
 -1       564 2.05882E+01 0.00000E+00 5.00000E+00
 -1       565 2.35294E+01 0.00000E+00 5.00000E+00
 -1       566 2.94118E+01 0.00000E+00 5.00000E+00
 -1       567 3.23529E+01 0.00000E+00 5.00000E+00
 -1       568 2.64706E+01 0.00000E+00 5.00000E+00
 -1       569 3.52941E+01 0.00000E+00 5.00000E+00
 -1       570 7.05882E+01 0.00000E+00 5.00000E+00
 -1       571 5.00000E+01 0.00000E+00 5.00000E+00
 -1       572 3.82353E+01 0.00000E+00 4.99998E+00
 -1       573 4.26379E+01 0.00000E+00 7.50759E+00
 -1       574 1.17439E+01 0.00000E+00 4.99812E+00
 -1       575 9.78349E+01 0.00000E+00 3.75000E+00
 -1       576 4.28341E+00 0.00000E+00 2.58354E+00
 -1       577 9.57116E+01 0.00000E+00 7.42460E+00
 -1       578 3.76654E+00 0.00000E+00 5.01168E+00
 -1       579 1.87615E+00 0.00000E+00 8.23475E+00
 -1       580 1.86018E+00 0.00000E+00 1.78097E+00
 -1       581 9.81239E+01 0.00000E+00 1.76523E+00
 -1       582 9.81388E+01 0.00000E+00 8.22066E+00
 -1       583 9.62315E+01 0.00000E+00 4.99153E+00
 -1       584 9.38075E-01 0.00000E+00 7.86738E+00
 -1       585 9.38075E-01 0.00000E+00 9.11738E+00
 -1       586 2.40866E+00 0.00000E+00 9.11738E+00
 -1       587 9.30089E-01 0.00000E+00 8.90485E-01
 -1       588 9.30089E-01 0.00000E+00 2.14049E+00
 -1       589 2.40068E+00 0.00000E+00 8.90485E-01
 -1       590 9.90694E+01 0.00000E+00 9.11033E+00
 -1       591 9.90694E+01 0.00000E+00 7.86033E+00
 -1       592 9.75988E+01 0.00000E+00 9.11033E+00
 -1       593 9.90619E+01 0.00000E+00 2.13262E+00
 -1       594 9.90619E+01 0.00000E+00 8.82616E-01
 -1       595 9.75914E+01 0.00000E+00 8.82616E-01
 -1       596 1.03815E+00 0.00000E+00 3.16066E+00
 -1       597 1.03815E+00 0.00000E+00 4.41066E+00
 -1       598 1.96824E+00 0.00000E+00 2.80114E+00
 -1       599 1.08253E+00 0.00000E+00 5.62500E+00
 -1       600 1.08253E+00 0.00000E+00 6.87500E+00
 -1       601 2.12068E+00 0.00000E+00 5.03566E+00
 -1       602 2.02061E+00 0.00000E+00 7.24238E+00
 -1       603 9.89175E+01 0.00000E+00 4.37500E+00
 -1       604 9.89175E+01 0.00000E+00 3.12500E+00
 -1       605 9.79794E+01 0.00000E+00 2.75762E+00
 -1       606 9.89619E+01 0.00000E+00 6.83934E+00
 -1       607 9.89619E+01 0.00000E+00 5.58934E+00
 -1       608 9.78793E+01 0.00000E+00 4.96434E+00
 -1       609 9.80313E+01 0.00000E+00 7.19967E+00
 -1       610 5.08288E+00 0.00000E+00 1.29177E+00
 -1       611 3.61229E+00 0.00000E+00 1.29177E+00
 -1       612 3.07180E+00 0.00000E+00 2.18225E+00
 -1       613 8.08823E+00 0.00000E+00 1.27357E+00
 -1       614 6.61765E+00 0.00000E+00 1.27357E+00
 -1       615 5.81818E+00 0.00000E+00 2.56534E+00
 -1       616 1.10225E+01 0.00000E+00 1.26956E+00
 -1       617 9.55189E+00 0.00000E+00 1.26956E+00
 -1       618 8.81659E+00 0.00000E+00 2.54313E+00
 -1       619 1.39666E+01 0.00000E+00 1.26324E+00
 -1       620 1.24960E+01 0.00000E+00 1.26324E+00
 -1       621 1.17538E+01 0.00000E+00 2.53280E+00
 -1       622 1.69100E+01 0.00000E+00 1.26629E+00
 -1       623 1.54394E+01 0.00000E+00 1.26629E+00
 -1       624 1.47001E+01 0.00000E+00 2.52952E+00
 -1       625 1.98529E+01 0.00000E+00 1.26916E+00
 -1       626 1.83823E+01 0.00000E+00 1.26916E+00
 -1       627 1.76452E+01 0.00000E+00 2.53545E+00
 -1       628 2.27941E+01 0.00000E+00 1.27357E+00
 -1       629 2.13235E+01 0.00000E+00 1.27357E+00
 -1       630 2.05882E+01 0.00000E+00 2.54273E+00
 -1       631 2.57353E+01 0.00000E+00 1.27357E+00
 -1       632 2.42647E+01 0.00000E+00 1.27357E+00
 -1       633 2.35294E+01 0.00000E+00 2.54713E+00
 -1       634 2.86765E+01 0.00000E+00 1.27357E+00
 -1       635 2.72059E+01 0.00000E+00 1.27357E+00
 -1       636 2.64706E+01 0.00000E+00 2.54713E+00
 -1       637 3.16176E+01 0.00000E+00 1.27357E+00
 -1       638 3.01471E+01 0.00000E+00 1.27357E+00
 -1       639 2.94118E+01 0.00000E+00 2.54713E+00
 -1       640 3.45588E+01 0.00000E+00 1.27357E+00
 -1       641 3.30882E+01 0.00000E+00 1.27357E+00
 -1       642 3.23529E+01 0.00000E+00 2.54713E+00
 -1       643 3.75000E+01 0.00000E+00 1.27357E+00
 -1       644 3.60294E+01 0.00000E+00 1.27357E+00
 -1       645 3.52941E+01 0.00000E+00 2.54713E+00
 -1       646 4.04401E+01 0.00000E+00 1.26507E+00
 -1       647 3.89695E+01 0.00000E+00 1.26507E+00
 -1       648 3.82342E+01 0.00000E+00 2.53863E+00
 -1       649 4.33757E+01 0.00000E+00 1.26971E+00
 -1       650 4.19051E+01 0.00000E+00 1.26971E+00
 -1       651 4.11687E+01 0.00000E+00 2.53478E+00
 -1       652 4.63157E+01 0.00000E+00 1.26122E+00
 -1       653 4.48452E+01 0.00000E+00 1.26122E+00
 -1       654 4.41032E+01 0.00000E+00 2.53093E+00
 -1       655 4.92647E+01 0.00000E+00 1.27357E+00
 -1       656 4.77941E+01 0.00000E+00 1.27357E+00
 -1       657 4.70510E+01 0.00000E+00 2.53478E+00
 -1       658 5.22059E+01 0.00000E+00 1.27357E+00
 -1       659 5.07353E+01 0.00000E+00 1.27357E+00
 -1       660 5.00000E+01 0.00000E+00 2.54713E+00
 -1       661 5.51471E+01 0.00000E+00 1.27357E+00
 -1       662 5.36765E+01 0.00000E+00 1.27357E+00
 -1       663 5.29412E+01 0.00000E+00 2.54713E+00
 -1       664 5.80882E+01 0.00000E+00 1.27357E+00
 -1       665 5.66176E+01 0.00000E+00 1.27357E+00
 -1       666 5.58824E+01 0.00000E+00 2.54713E+00
 -1       667 6.10294E+01 0.00000E+00 1.27357E+00
 -1       668 5.95588E+01 0.00000E+00 1.27357E+00
 -1       669 5.88235E+01 0.00000E+00 2.54713E+00
 -1       670 6.39706E+01 0.00000E+00 1.27357E+00
 -1       671 6.25000E+01 0.00000E+00 1.27357E+00
 -1       672 6.17647E+01 0.00000E+00 2.54713E+00
 -1       673 6.69118E+01 0.00000E+00 1.27357E+00
 -1       674 6.54412E+01 0.00000E+00 1.27357E+00
 -1       675 6.47059E+01 0.00000E+00 2.54713E+00
 -1       676 6.98529E+01 0.00000E+00 1.27357E+00
 -1       677 6.83824E+01 0.00000E+00 1.27357E+00
 -1       678 6.76471E+01 0.00000E+00 2.54713E+00
 -1       679 7.27941E+01 0.00000E+00 1.27357E+00
 -1       680 7.13235E+01 0.00000E+00 1.27357E+00
 -1       681 7.05882E+01 0.00000E+00 2.54713E+00
 -1       682 7.57353E+01 0.00000E+00 1.27357E+00
 -1       683 7.42647E+01 0.00000E+00 1.27357E+00
 -1       684 7.35294E+01 0.00000E+00 2.54713E+00
 -1       685 7.86765E+01 0.00000E+00 1.27357E+00
 -1       686 7.72059E+01 0.00000E+00 1.27357E+00
 -1       687 7.64706E+01 0.00000E+00 2.54713E+00
 -1       688 8.16176E+01 0.00000E+00 1.27357E+00
 -1       689 8.01471E+01 0.00000E+00 1.27357E+00
 -1       690 7.94118E+01 0.00000E+00 2.54713E+00
 -1       691 8.45588E+01 0.00000E+00 1.27357E+00
 -1       692 8.30882E+01 0.00000E+00 1.27357E+00
 -1       693 8.23529E+01 0.00000E+00 2.54713E+00
 -1       694 8.75000E+01 0.00000E+00 1.27357E+00
 -1       695 8.60294E+01 0.00000E+00 1.27357E+00
 -1       696 8.52941E+01 0.00000E+00 2.54713E+00
 -1       697 9.04412E+01 0.00000E+00 1.27357E+00
 -1       698 8.89706E+01 0.00000E+00 1.27357E+00
 -1       699 8.82353E+01 0.00000E+00 2.54713E+00
 -1       700 9.33885E+01 0.00000E+00 1.26661E+00
 -1       701 9.19179E+01 0.00000E+00 1.26661E+00
 -1       702 9.11826E+01 0.00000E+00 2.54018E+00
 -1       703 9.63922E+01 0.00000E+00 1.28808E+00
 -1       704 9.49216E+01 0.00000E+00 1.28808E+00
 -1       705 9.41925E+01 0.00000E+00 2.55469E+00
 -1       706 9.69248E+01 0.00000E+00 2.17069E+00
 -1       707 3.60784E+00 0.00000E+00 8.71188E+00
 -1       708 5.07843E+00 0.00000E+00 8.71188E+00
 -1       709 3.07533E+00 0.00000E+00 7.82926E+00
 -1       710 6.61180E+00 0.00000E+00 8.73321E+00
 -1       711 8.08239E+00 0.00000E+00 8.73321E+00
 -1       712 5.80788E+00 0.00000E+00 7.44509E+00
 -1       713 9.55882E+00 0.00000E+00 8.72643E+00
 -1       714 1.10294E+01 0.00000E+00 8.72643E+00
 -1       715 8.81769E+00 0.00000E+00 7.45964E+00
 -1       716 1.24703E+01 0.00000E+00 8.74889E+00
 -1       717 1.39409E+01 0.00000E+00 8.74889E+00
 -1       718 1.17350E+01 0.00000E+00 7.47532E+00
 -1       719 1.54687E+01 0.00000E+00 8.74871E+00
 -1       720 1.69393E+01 0.00000E+00 8.74871E+00
 -1       721 1.47037E+01 0.00000E+00 7.49759E+00
 -1       722 1.83824E+01 0.00000E+00 8.72643E+00
 -1       723 1.98529E+01 0.00000E+00 8.72643E+00
 -1       724 1.76746E+01 0.00000E+00 7.47514E+00
 -1       725 2.13235E+01 0.00000E+00 8.72643E+00
 -1       726 2.27941E+01 0.00000E+00 8.72643E+00
 -1       727 2.05882E+01 0.00000E+00 7.45287E+00
 -1       728 2.42647E+01 0.00000E+00 8.72643E+00
 -1       729 2.57353E+01 0.00000E+00 8.72643E+00
 -1       730 2.35294E+01 0.00000E+00 7.45287E+00
 -1       731 2.72059E+01 0.00000E+00 8.72643E+00
 -1       732 2.86765E+01 0.00000E+00 8.72643E+00
 -1       733 2.64706E+01 0.00000E+00 7.45287E+00
 -1       734 3.01471E+01 0.00000E+00 8.72643E+00
 -1       735 3.16176E+01 0.00000E+00 8.72643E+00
 -1       736 2.94118E+01 0.00000E+00 7.45287E+00
 -1       737 3.30882E+01 0.00000E+00 8.72643E+00
 -1       738 3.45588E+01 0.00000E+00 8.72643E+00
 -1       739 3.23529E+01 0.00000E+00 7.45287E+00
 -1       740 3.60294E+01 0.00000E+00 8.72643E+00
 -1       741 3.75000E+01 0.00000E+00 8.72643E+00
 -1       742 3.52941E+01 0.00000E+00 7.45287E+00
 -1       743 3.89681E+01 0.00000E+00 8.75228E+00
 -1       744 4.04387E+01 0.00000E+00 8.75228E+00
 -1       745 3.82329E+01 0.00000E+00 7.47871E+00
 -1       746 4.19072E+01 0.00000E+00 8.75379E+00
 -1       747 4.33778E+01 0.00000E+00 8.75379E+00
 -1       748 4.11694E+01 0.00000E+00 7.50607E+00
 -1       749 4.48482E+01 0.00000E+00 8.74613E+00
 -1       750 4.63188E+01 0.00000E+00 8.74613E+00
 -1       751 4.41083E+01 0.00000E+00 7.49992E+00
 -1       752 4.77937E+01 0.00000E+00 8.73612E+00
 -1       753 4.92643E+01 0.00000E+00 8.73612E+00
 -1       754 4.70536E+01 0.00000E+00 7.48225E+00
 -1       755 5.07353E+01 0.00000E+00 8.72643E+00
 -1       756 5.22059E+01 0.00000E+00 8.72643E+00
 -1       757 4.99996E+01 0.00000E+00 7.46256E+00
 -1       758 5.36765E+01 0.00000E+00 8.72643E+00
 -1       759 5.51471E+01 0.00000E+00 8.72643E+00
 -1       760 5.29412E+01 0.00000E+00 7.45287E+00
 -1       761 5.66176E+01 0.00000E+00 8.72643E+00
 -1       762 5.80882E+01 0.00000E+00 8.72643E+00
 -1       763 5.58824E+01 0.00000E+00 7.45287E+00
 -1       764 5.95588E+01 0.00000E+00 8.72643E+00
 -1       765 6.10294E+01 0.00000E+00 8.72643E+00
 -1       766 5.88235E+01 0.00000E+00 7.45287E+00
 -1       767 6.25000E+01 0.00000E+00 8.72643E+00
 -1       768 6.39706E+01 0.00000E+00 8.72643E+00
 -1       769 6.17647E+01 0.00000E+00 7.45287E+00
 -1       770 6.54412E+01 0.00000E+00 8.72643E+00
 -1       771 6.69118E+01 0.00000E+00 8.72643E+00
 -1       772 6.47059E+01 0.00000E+00 7.45287E+00
 -1       773 6.83824E+01 0.00000E+00 8.72643E+00
 -1       774 6.98529E+01 0.00000E+00 8.72643E+00
 -1       775 6.76471E+01 0.00000E+00 7.45287E+00
 -1       776 7.13235E+01 0.00000E+00 8.72643E+00
 -1       777 7.27941E+01 0.00000E+00 8.72643E+00
 -1       778 7.05882E+01 0.00000E+00 7.45287E+00
 -1       779 7.42647E+01 0.00000E+00 8.72643E+00
 -1       780 7.57353E+01 0.00000E+00 8.72643E+00
 -1       781 7.35294E+01 0.00000E+00 7.45287E+00
 -1       782 7.72059E+01 0.00000E+00 8.72643E+00
 -1       783 7.86765E+01 0.00000E+00 8.72643E+00
 -1       784 7.64706E+01 0.00000E+00 7.45287E+00
 -1       785 8.01471E+01 0.00000E+00 8.72643E+00
 -1       786 8.16176E+01 0.00000E+00 8.72643E+00
 -1       787 7.94118E+01 0.00000E+00 7.45287E+00
 -1       788 8.30882E+01 0.00000E+00 8.72643E+00
 -1       789 8.45588E+01 0.00000E+00 8.72643E+00
 -1       790 8.23529E+01 0.00000E+00 7.45287E+00
 -1       791 8.60294E+01 0.00000E+00 8.72643E+00
 -1       792 8.75000E+01 0.00000E+00 8.72643E+00
 -1       793 8.52941E+01 0.00000E+00 7.45287E+00
 -1       794 8.89706E+01 0.00000E+00 8.72643E+00
 -1       795 9.04412E+01 0.00000E+00 8.72643E+00
 -1       796 8.82353E+01 0.00000E+00 7.45287E+00
 -1       797 9.18966E+01 0.00000E+00 8.75091E+00
 -1       798 9.33672E+01 0.00000E+00 8.75091E+00
 -1       799 9.11613E+01 0.00000E+00 7.47734E+00
 -1       800 9.49146E+01 0.00000E+00 8.71230E+00
 -1       801 9.63852E+01 0.00000E+00 8.71230E+00
 -1       802 9.41641E+01 0.00000E+00 7.46321E+00
 -1       803 9.69252E+01 0.00000E+00 7.82263E+00
 -1       804 7.13235E+01 0.00000E+00 3.77357E+00
 -1       805 6.98529E+01 0.00000E+00 3.77357E+00
 -1       806 6.83824E+01 0.00000E+00 3.77357E+00
 -1       807 6.69118E+01 0.00000E+00 3.77357E+00
 -1       808 6.91176E+01 0.00000E+00 5.00000E+00
 -1       809 8.01471E+01 0.00000E+00 3.77357E+00
 -1       810 7.86765E+01 0.00000E+00 3.77357E+00
 -1       811 8.30882E+01 0.00000E+00 3.77357E+00
 -1       812 8.16176E+01 0.00000E+00 3.77357E+00
 -1       813 8.08824E+01 0.00000E+00 5.00000E+00
 -1       814 9.04378E+01 0.00000E+00 6.22758E+00
 -1       815 9.18932E+01 0.00000E+00 6.25206E+00
 -1       816 9.32892E+01 0.00000E+00 6.26502E+00
 -1       817 9.25657E+01 0.00000E+00 5.01525E+00
 -1       818 9.48367E+01 0.00000E+00 6.22640E+00
 -1       819 5.95588E+01 0.00000E+00 3.77357E+00
 -1       820 5.80882E+01 0.00000E+00 3.77357E+00
 -1       821 5.66176E+01 0.00000E+00 3.77357E+00
 -1       822 5.51471E+01 0.00000E+00 3.77357E+00
 -1       823 5.73529E+01 0.00000E+00 5.00000E+00
 -1       824 6.10294E+01 0.00000E+00 6.22643E+00
 -1       825 6.25000E+01 0.00000E+00 6.22643E+00
 -1       826 6.39706E+01 0.00000E+00 6.22643E+00
 -1       827 6.54412E+01 0.00000E+00 6.22643E+00
 -1       828 6.32353E+01 0.00000E+00 5.00000E+00
 -1       829 7.27941E+01 0.00000E+00 6.22643E+00
 -1       830 7.42647E+01 0.00000E+00 6.22643E+00
 -1       831 7.57353E+01 0.00000E+00 6.22643E+00
 -1       832 7.72059E+01 0.00000E+00 6.22643E+00
 -1       833 7.50000E+01 0.00000E+00 5.00000E+00
 -1       834 8.75000E+01 0.00000E+00 6.22643E+00
 -1       835 8.89706E+01 0.00000E+00 6.22643E+00
 -1       836 8.45588E+01 0.00000E+00 6.22643E+00
 -1       837 8.60294E+01 0.00000E+00 6.22643E+00
 -1       838 8.67647E+01 0.00000E+00 5.00000E+00
 -1       839 4.92643E+01 0.00000E+00 6.23612E+00
 -1       840 5.07353E+01 0.00000E+00 6.22643E+00
 -1       841 5.22059E+01 0.00000E+00 6.22643E+00
 -1       842 5.36765E+01 0.00000E+00 6.22643E+00
 -1       843 5.14706E+01 0.00000E+00 5.00000E+00
 -1       844 1.54360E+01 0.00000E+00 3.77042E+00
 -1       845 1.39632E+01 0.00000E+00 3.76737E+00
 -1       846 1.69100E+01 0.00000E+00 3.76627E+00
 -1       847 1.61731E+01 0.00000E+00 5.00412E+00
 -1       848 1.83823E+01 0.00000E+00 3.76915E+00
 -1       849 2.42647E+01 0.00000E+00 3.77357E+00
 -1       850 2.27941E+01 0.00000E+00 3.77357E+00
 -1       851 2.13235E+01 0.00000E+00 3.77357E+00
 -1       852 1.98529E+01 0.00000E+00 3.76916E+00
 -1       853 2.20588E+01 0.00000E+00 5.00000E+00
 -1       854 8.08228E+00 0.00000E+00 6.23321E+00
 -1       855 9.55872E+00 0.00000E+00 6.22643E+00
 -1       856 1.02836E+01 0.00000E+00 4.99906E+00
 -1       857 1.10190E+01 0.00000E+00 6.22549E+00
 -1       858 1.24599E+01 0.00000E+00 6.24794E+00
 -1       859 3.60294E+01 0.00000E+00 3.77357E+00
 -1       860 3.45588E+01 0.00000E+00 3.77357E+00
 -1       861 3.30882E+01 0.00000E+00 3.77357E+00
 -1       862 3.16176E+01 0.00000E+00 3.77357E+00
 -1       863 3.38235E+01 0.00000E+00 5.00000E+00
 -1       864 4.18904E+01 0.00000E+00 3.78337E+00
 -1       865 4.04254E+01 0.00000E+00 3.77872E+00
 -1       866 4.33700E+01 0.00000E+00 3.78043E+00
 -1       867 4.26268E+01 0.00000E+00 5.02437E+00
 -1       868 4.48395E+01 0.00000E+00 3.77193E+00
 -1       869 2.72059E+01 0.00000E+00 3.77357E+00
 -1       870 2.57353E+01 0.00000E+00 3.77357E+00
 -1       871 3.01471E+01 0.00000E+00 3.77357E+00
 -1       872 2.86765E+01 0.00000E+00 3.77357E+00
 -1       873 2.79412E+01 0.00000E+00 5.00000E+00
 -1       874 5.15397E+00 0.00000E+00 6.20177E+00
 -1       875 6.68734E+00 0.00000E+00 6.22310E+00
 -1       876 4.02053E+00 0.00000E+00 6.21772E+00
 -1       877 4.89999E+00 0.00000E+00 4.99573E+00
 -1       878 3.21979E+00 0.00000E+00 6.83688E+00
 -1       879 2.96580E+00 0.00000E+00 5.63084E+00
 -1       880 9.55178E+00 0.00000E+00 3.76956E+00
 -1       881 8.08813E+00 0.00000E+00 3.77357E+00
 -1       882 6.69319E+00 0.00000E+00 3.76345E+00
 -1       883 7.42837E+00 0.00000E+00 4.98989E+00
 -1       884 5.15842E+00 0.00000E+00 3.78166E+00
 -1       885 9.48437E+01 0.00000E+00 3.80218E+00
 -1       886 9.33106E+01 0.00000E+00 3.78072E+00
 -1       887 9.59786E+01 0.00000E+00 3.78384E+00
 -1       888 9.50966E+01 0.00000E+00 5.00987E+00
 -1       889 9.67803E+01 0.00000E+00 3.16308E+00
 -1       890 9.70332E+01 0.00000E+00 4.37076E+00
 -1       891 5.07353E+01 0.00000E+00 3.77357E+00
 -1       892 4.92647E+01 0.00000E+00 3.77357E+00
 -1       893 4.77910E+01 0.00000E+00 3.77819E+00
 -1       894 4.63126E+01 0.00000E+00 3.76584E+00
 -1       895 4.85263E+01 0.00000E+00 5.00462E+00
 -1       896 9.19145E+01 0.00000E+00 3.76776E+00
 -1       897 9.04378E+01 0.00000E+00 3.77471E+00
 -1       898 8.89706E+01 0.00000E+00 3.77357E+00
 -1       899 8.75000E+01 0.00000E+00 3.77357E+00
 -1       900 8.97025E+01 0.00000E+00 5.00115E+00
 -1       901 1.98529E+01 0.00000E+00 6.22643E+00
 -1       902 2.13235E+01 0.00000E+00 6.22643E+00
 -1       903 1.69393E+01 0.00000E+00 6.24869E+00
 -1       904 1.83824E+01 0.00000E+00 6.22642E+00
 -1       905 1.91176E+01 0.00000E+00 4.99999E+00
 -1       906 3.45588E+01 0.00000E+00 6.22643E+00
 -1       907 3.60294E+01 0.00000E+00 6.22643E+00
 -1       908 3.75000E+01 0.00000E+00 6.22642E+00
 -1       909 3.89681E+01 0.00000E+00 6.25227E+00
 -1       910 3.67647E+01 0.00000E+00 4.99999E+00
 -1       911 4.63157E+01 0.00000E+00 6.25075E+00
 -1       912 4.77906E+01 0.00000E+00 6.24075E+00
 -1       913 4.48425E+01 0.00000E+00 6.25684E+00
 -1       914 4.55795E+01 0.00000E+00 5.01534E+00
 -1       915 4.33721E+01 0.00000E+00 6.26451E+00
 -1       916 2.57353E+01 0.00000E+00 6.22643E+00
 -1       917 2.72059E+01 0.00000E+00 6.22643E+00
 -1       918 2.27941E+01 0.00000E+00 6.22643E+00
 -1       919 2.42647E+01 0.00000E+00 6.22643E+00
 -1       920 2.50000E+01 0.00000E+00 5.00000E+00
 -1       921 3.16176E+01 0.00000E+00 6.22643E+00
 -1       922 3.30882E+01 0.00000E+00 6.22643E+00
 -1       923 2.86765E+01 0.00000E+00 6.22643E+00
 -1       924 3.01471E+01 0.00000E+00 6.22643E+00
 -1       925 3.08824E+01 0.00000E+00 5.00000E+00
 -1       926 2.92142E+00 0.00000E+00 4.41650E+00
 -1       927 3.17986E+00 0.00000E+00 3.20243E+00
 -1       928 4.02498E+00 0.00000E+00 3.79761E+00
 -1       929 9.70776E+01 0.00000E+00 5.58511E+00
 -1       930 9.68176E+01 0.00000E+00 6.80164E+00
 -1       931 9.59715E+01 0.00000E+00 6.20806E+00
 -1       932 6.98529E+01 0.00000E+00 6.22643E+00
 -1       933 7.13235E+01 0.00000E+00 6.22643E+00
 -1       934 6.69118E+01 0.00000E+00 6.22643E+00
 -1       935 6.83824E+01 0.00000E+00 6.22643E+00
 -1       936 7.86765E+01 0.00000E+00 6.22643E+00
 -1       937 8.01471E+01 0.00000E+00 6.22643E+00
 -1       938 8.16176E+01 0.00000E+00 6.22643E+00
 -1       939 8.30882E+01 0.00000E+00 6.22643E+00
 -1       940 5.80882E+01 0.00000E+00 6.22643E+00
 -1       941 5.95588E+01 0.00000E+00 6.22643E+00
 -1       942 5.51471E+01 0.00000E+00 6.22643E+00
 -1       943 5.66176E+01 0.00000E+00 6.22643E+00
 -1       944 6.25000E+01 0.00000E+00 3.77357E+00
 -1       945 6.10294E+01 0.00000E+00 3.77357E+00
 -1       946 6.54412E+01 0.00000E+00 3.77357E+00
 -1       947 6.39706E+01 0.00000E+00 3.77357E+00
 -1       948 7.42647E+01 0.00000E+00 3.77357E+00
 -1       949 7.27941E+01 0.00000E+00 3.77357E+00
 -1       950 7.72059E+01 0.00000E+00 3.77357E+00
 -1       951 7.57353E+01 0.00000E+00 3.77357E+00
 -1       952 1.24856E+01 0.00000E+00 3.76229E+00
 -1       953 1.10120E+01 0.00000E+00 3.76862E+00
 -1       954 1.32215E+01 0.00000E+00 5.00319E+00
 -1       955 1.54653E+01 0.00000E+00 6.25284E+00
 -1       956 1.39375E+01 0.00000E+00 6.25302E+00
 -1       957 7.20588E+01 0.00000E+00 5.00000E+00
 -1       958 5.36765E+01 0.00000E+00 3.77357E+00
 -1       959 5.22059E+01 0.00000E+00 3.77357E+00
 -1       960 6.02941E+01 0.00000E+00 5.00000E+00
 -1       961 3.89695E+01 0.00000E+00 3.76506E+00
 -1       962 3.75000E+01 0.00000E+00 3.77356E+00
 -1       963 3.96912E+01 0.00000E+00 5.01364E+00
 -1       964 4.04241E+01 0.00000E+00 6.26593E+00
 -1       965 4.18925E+01 0.00000E+00 6.26745E+00
 -1       966 7.79412E+01 0.00000E+00 5.00000E+00
 -1       967 8.60294E+01 0.00000E+00 3.77357E+00
 -1       968 8.45588E+01 0.00000E+00 3.77357E+00
 -1       969 8.38235E+01 0.00000E+00 5.00000E+00
 -1       970 5.44118E+01 0.00000E+00 5.00000E+00
 -1       971 6.61765E+01 0.00000E+00 5.00000E+00
 -1       972 6.91176E+01 1.00000E+01 2.54713E+00
 -1       973 8.08824E+01 1.00000E+01 2.54713E+00
 -1       974 9.26167E+01 1.00000E+01 7.50182E+00
 -1       975 5.73529E+01 1.00000E+01 2.54713E+00
 -1       976 6.32353E+01 1.00000E+01 2.54713E+00
 -1       977 7.50000E+01 1.00000E+01 2.54713E+00
 -1       978 8.67647E+01 1.00000E+01 7.45287E+00
 -1       979 5.14706E+01 1.00000E+01 7.45287E+00
 -1       980 1.61730E+01 1.00000E+01 2.53257E+00
 -1       981 2.20588E+01 1.00000E+01 2.54713E+00
 -1       982 1.02941E+01 1.00000E+01 7.45287E+00
 -1       983 3.38235E+01 1.00000E+01 2.54713E+00
 -1       984 4.26337E+01 1.00000E+01 2.53943E+00
 -1       985 2.79412E+01 1.00000E+01 2.54713E+00
 -1       986 4.27451E+00 1.00000E+01 7.42376E+00
 -1       987 7.35294E+00 1.00000E+01 2.54713E+00
 -1       988 9.57256E+01 1.00000E+01 2.57616E+00
 -1       989 7.20588E+01 1.00000E+01 7.45287E+00
 -1       990 4.85294E+01 1.00000E+01 2.54713E+00
 -1       991 8.97059E+01 1.00000E+01 2.54713E+00
 -1       992 6.02941E+01 1.00000E+01 7.45287E+00
 -1       993 7.79412E+01 1.00000E+01 7.45287E+00
 -1       994 6.61765E+01 1.00000E+01 7.45287E+00
 -1       995 1.91176E+01 1.00000E+01 7.45287E+00
 -1       996 3.67647E+01 1.00000E+01 7.45287E+00
 -1       997 4.55787E+01 1.00000E+01 7.49225E+00
 -1       998 2.50000E+01 1.00000E+01 7.45287E+00
 -1       999 3.08824E+01 1.00000E+01 7.45287E+00
 -1      1000 2.07630E+00 1.00000E+01 3.82131E+00
 -1      1001 9.79237E+01 1.00000E+01 6.17869E+00
 -1      1002 7.34125E+00 1.00000E+01 7.46642E+00
 -1      1003 1.02802E+01 1.00000E+01 2.53912E+00
 -1      1004 1.32273E+01 1.00000E+01 2.52647E+00
 -1      1005 1.46991E+01 1.00000E+01 5.00827E+00
 -1      1006 9.26593E+01 1.00000E+01 2.53322E+00
 -1      1007 7.20588E+01 1.00000E+01 2.54713E+00
 -1      1008 8.08824E+01 1.00000E+01 7.45287E+00
 -1      1009 5.73529E+01 1.00000E+01 7.45287E+00
 -1      1010 4.85286E+01 1.00000E+01 7.47225E+00
 -1      1011 5.14706E+01 1.00000E+01 2.54713E+00
 -1      1012 6.02941E+01 1.00000E+01 2.54713E+00
 -1      1013 5.44118E+01 1.00000E+01 7.45287E+00
 -1      1014 2.50000E+01 1.00000E+01 2.54713E+00
 -1      1015 3.67647E+01 1.00000E+01 2.54713E+00
 -1      1016 3.97037E+01 1.00000E+01 2.53013E+00
 -1      1017 4.11472E+01 1.00000E+01 5.02730E+00
 -1      1018 3.38235E+01 1.00000E+01 7.45287E+00
 -1      1019 6.32353E+01 1.00000E+01 7.45287E+00
 -1      1020 7.79412E+01 1.00000E+01 2.54713E+00
 -1      1021 4.55727E+01 1.00000E+01 2.52243E+00
 -1      1022 8.97059E+01 1.00000E+01 7.45287E+00
 -1      1023 8.67647E+01 1.00000E+01 2.54713E+00
 -1      1024 2.79412E+01 1.00000E+01 7.45287E+00
 -1      1025 2.20588E+01 1.00000E+01 7.45287E+00
 -1      1026 8.38235E+01 1.00000E+01 2.54713E+00
 -1      1027 6.91176E+01 1.00000E+01 7.45287E+00
 -1      1028 1.91175E+01 1.00000E+01 2.53832E+00
 -1      1029 5.44118E+01 1.00000E+01 2.54713E+00
 -1      1030 3.08824E+01 1.00000E+01 2.54713E+00
 -1      1031 8.38235E+01 1.00000E+01 7.45287E+00
 -1      1032 6.61765E+01 1.00000E+01 2.54713E+00
 -1      1033 7.50000E+01 1.00000E+01 7.45287E+00
 -1      1034 6.03343E+00 1.00000E+01 4.97977E+00
 -1      1035 8.82332E+00 1.00000E+01 5.00000E+00
 -1      1036 1.62315E+01 1.00000E+01 7.49741E+00
 -1      1037 2.16506E+00 1.00000E+01 6.25000E+00
 -1      1038 3.97010E+01 1.00000E+01 7.50455E+00
 -1      1039 4.41064E+01 1.00000E+01 5.02143E+00
 -1      1040 9.39618E+01 1.00000E+01 5.02821E+00
 -1      1041 1.31760E+01 1.00000E+01 7.49777E+00
 -1      1042 9.11697E+01 1.00000E+01 5.00229E+00
 -1      1043 1.76471E+01 1.00000E+01 4.99998E+00
 -1      1044 7.94118E+01 1.00000E+01 5.00000E+00
 -1      1045 8.23529E+01 1.00000E+01 5.00000E+00
 -1      1046 7.35294E+01 1.00000E+01 5.00000E+00
 -1      1047 8.82353E+01 1.00000E+01 5.00000E+00
 -1      1048 6.17647E+01 1.00000E+01 5.00000E+00
 -1      1049 5.29412E+01 1.00000E+01 5.00000E+00
 -1      1050 6.47059E+01 1.00000E+01 5.00000E+00
 -1      1051 6.76471E+01 1.00000E+01 5.00000E+00
 -1      1052 8.52941E+01 1.00000E+01 5.00000E+00
 -1      1053 7.64706E+01 1.00000E+01 5.00000E+00
 -1      1054 4.70526E+01 1.00000E+01 5.00925E+00
 -1      1055 2.05882E+01 1.00000E+01 5.00000E+00
 -1      1056 2.35294E+01 1.00000E+01 5.00000E+00
 -1      1057 5.58824E+01 1.00000E+01 5.00000E+00
 -1      1058 2.94118E+01 1.00000E+01 5.00000E+00
 -1      1059 3.23529E+01 1.00000E+01 5.00000E+00
 -1      1060 2.64706E+01 1.00000E+01 5.00000E+00
 -1      1061 5.88235E+01 1.00000E+01 5.00000E+00
 -1      1062 7.05882E+01 1.00000E+01 5.00000E+00
 -1      1063 3.52941E+01 1.00000E+01 5.00000E+00
 -1      1064 5.00000E+01 1.00000E+01 5.00000E+00
 -1      1065 3.82353E+01 1.00000E+01 4.99998E+00
 -1      1066 4.26379E+01 1.00000E+01 7.50759E+00
 -1      1067 1.17439E+01 1.00000E+01 4.99812E+00
 -1      1068 9.78349E+01 1.00000E+01 3.75000E+00
 -1      1069 4.28341E+00 1.00000E+01 2.58354E+00
 -1      1070 9.57116E+01 1.00000E+01 7.42460E+00
 -1      1071 3.76654E+00 1.00000E+01 5.01168E+00
 -1      1072 1.87615E+00 1.00000E+01 8.23475E+00
 -1      1073 1.86018E+00 1.00000E+01 1.78097E+00
 -1      1074 9.81239E+01 1.00000E+01 1.76523E+00
 -1      1075 9.81388E+01 1.00000E+01 8.22066E+00
 -1      1076 9.62315E+01 1.00000E+01 4.99153E+00
 -1      1077 9.38075E-01 1.00000E+01 9.11738E+00
 -1      1078 9.38075E-01 1.00000E+01 7.86738E+00
 -1      1079 2.40866E+00 1.00000E+01 9.11738E+00
 -1      1080 9.30089E-01 1.00000E+01 2.14049E+00
 -1      1081 9.30089E-01 1.00000E+01 8.90485E-01
 -1      1082 2.40068E+00 1.00000E+01 8.90485E-01
 -1      1083 9.90694E+01 1.00000E+01 7.86033E+00
 -1      1084 9.90694E+01 1.00000E+01 9.11033E+00
 -1      1085 9.75988E+01 1.00000E+01 9.11033E+00
 -1      1086 9.90619E+01 1.00000E+01 8.82616E-01
 -1      1087 9.90619E+01 1.00000E+01 2.13262E+00
 -1      1088 9.75914E+01 1.00000E+01 8.82616E-01
 -1      1089 1.03815E+00 1.00000E+01 4.41066E+00
 -1      1090 1.03815E+00 1.00000E+01 3.16066E+00
 -1      1091 1.96824E+00 1.00000E+01 2.80114E+00
 -1      1092 1.08253E+00 1.00000E+01 6.87500E+00
 -1      1093 1.08253E+00 1.00000E+01 5.62500E+00
 -1      1094 2.12068E+00 1.00000E+01 5.03566E+00
 -1      1095 2.02061E+00 1.00000E+01 7.24238E+00
 -1      1096 9.89175E+01 1.00000E+01 3.12500E+00
 -1      1097 9.89175E+01 1.00000E+01 4.37500E+00
 -1      1098 9.79794E+01 1.00000E+01 2.75762E+00
 -1      1099 9.89619E+01 1.00000E+01 5.58934E+00
 -1      1100 9.89619E+01 1.00000E+01 6.83934E+00
 -1      1101 9.78793E+01 1.00000E+01 4.96434E+00
 -1      1102 9.80313E+01 1.00000E+01 7.19967E+00
 -1      1103 3.61229E+00 1.00000E+01 1.29177E+00
 -1      1104 5.08288E+00 1.00000E+01 1.29177E+00
 -1      1105 3.07180E+00 1.00000E+01 2.18225E+00
 -1      1106 6.61765E+00 1.00000E+01 1.27357E+00
 -1      1107 8.08823E+00 1.00000E+01 1.27357E+00
 -1      1108 5.81818E+00 1.00000E+01 2.56534E+00
 -1      1109 9.55189E+00 1.00000E+01 1.26956E+00
 -1      1110 1.10225E+01 1.00000E+01 1.26956E+00
 -1      1111 8.81659E+00 1.00000E+01 2.54313E+00
 -1      1112 1.24960E+01 1.00000E+01 1.26324E+00
 -1      1113 1.39666E+01 1.00000E+01 1.26324E+00
 -1      1114 1.17538E+01 1.00000E+01 2.53280E+00
 -1      1115 1.54394E+01 1.00000E+01 1.26629E+00
 -1      1116 1.69100E+01 1.00000E+01 1.26629E+00
 -1      1117 1.47001E+01 1.00000E+01 2.52952E+00
 -1      1118 1.83823E+01 1.00000E+01 1.26916E+00
 -1      1119 1.98529E+01 1.00000E+01 1.26916E+00
 -1      1120 1.76452E+01 1.00000E+01 2.53545E+00
 -1      1121 2.13235E+01 1.00000E+01 1.27357E+00
 -1      1122 2.27941E+01 1.00000E+01 1.27357E+00
 -1      1123 2.05882E+01 1.00000E+01 2.54273E+00
 -1      1124 2.42647E+01 1.00000E+01 1.27357E+00
 -1      1125 2.57353E+01 1.00000E+01 1.27357E+00
 -1      1126 2.35294E+01 1.00000E+01 2.54713E+00
 -1      1127 2.72059E+01 1.00000E+01 1.27357E+00
 -1      1128 2.86765E+01 1.00000E+01 1.27357E+00
 -1      1129 2.64706E+01 1.00000E+01 2.54713E+00
 -1      1130 3.01471E+01 1.00000E+01 1.27357E+00
 -1      1131 3.16176E+01 1.00000E+01 1.27357E+00
 -1      1132 2.94118E+01 1.00000E+01 2.54713E+00
 -1      1133 3.30882E+01 1.00000E+01 1.27357E+00
 -1      1134 3.45588E+01 1.00000E+01 1.27357E+00
 -1      1135 3.23529E+01 1.00000E+01 2.54713E+00
 -1      1136 3.60294E+01 1.00000E+01 1.27357E+00
 -1      1137 3.75000E+01 1.00000E+01 1.27357E+00
 -1      1138 3.52941E+01 1.00000E+01 2.54713E+00
 -1      1139 3.89695E+01 1.00000E+01 1.26507E+00
 -1      1140 4.04401E+01 1.00000E+01 1.26507E+00
 -1      1141 3.82342E+01 1.00000E+01 2.53863E+00
 -1      1142 4.19051E+01 1.00000E+01 1.26971E+00
 -1      1143 4.33757E+01 1.00000E+01 1.26971E+00
 -1      1144 4.11687E+01 1.00000E+01 2.53478E+00
 -1      1145 4.48452E+01 1.00000E+01 1.26122E+00
 -1      1146 4.63157E+01 1.00000E+01 1.26122E+00
 -1      1147 4.41032E+01 1.00000E+01 2.53093E+00
 -1      1148 4.77941E+01 1.00000E+01 1.27357E+00
 -1      1149 4.92647E+01 1.00000E+01 1.27357E+00
 -1      1150 4.70510E+01 1.00000E+01 2.53478E+00
 -1      1151 5.07353E+01 1.00000E+01 1.27357E+00
 -1      1152 5.22059E+01 1.00000E+01 1.27357E+00
 -1      1153 5.00000E+01 1.00000E+01 2.54713E+00
 -1      1154 5.36765E+01 1.00000E+01 1.27357E+00
 -1      1155 5.51471E+01 1.00000E+01 1.27357E+00
 -1      1156 5.29412E+01 1.00000E+01 2.54713E+00
 -1      1157 5.66176E+01 1.00000E+01 1.27357E+00
 -1      1158 5.80882E+01 1.00000E+01 1.27357E+00
 -1      1159 5.58824E+01 1.00000E+01 2.54713E+00
 -1      1160 5.95588E+01 1.00000E+01 1.27357E+00
 -1      1161 6.10294E+01 1.00000E+01 1.27357E+00
 -1      1162 5.88235E+01 1.00000E+01 2.54713E+00
 -1      1163 6.25000E+01 1.00000E+01 1.27357E+00
 -1      1164 6.39706E+01 1.00000E+01 1.27357E+00
 -1      1165 6.17647E+01 1.00000E+01 2.54713E+00
 -1      1166 6.54412E+01 1.00000E+01 1.27357E+00
 -1      1167 6.69118E+01 1.00000E+01 1.27357E+00
 -1      1168 6.47059E+01 1.00000E+01 2.54713E+00
 -1      1169 6.83824E+01 1.00000E+01 1.27357E+00
 -1      1170 6.98529E+01 1.00000E+01 1.27357E+00
 -1      1171 6.76471E+01 1.00000E+01 2.54713E+00
 -1      1172 7.13235E+01 1.00000E+01 1.27357E+00
 -1      1173 7.27941E+01 1.00000E+01 1.27357E+00
 -1      1174 7.05882E+01 1.00000E+01 2.54713E+00
 -1      1175 7.42647E+01 1.00000E+01 1.27357E+00
 -1      1176 7.57353E+01 1.00000E+01 1.27357E+00
 -1      1177 7.35294E+01 1.00000E+01 2.54713E+00
 -1      1178 7.72059E+01 1.00000E+01 1.27357E+00
 -1      1179 7.86765E+01 1.00000E+01 1.27357E+00
 -1      1180 7.64706E+01 1.00000E+01 2.54713E+00
 -1      1181 8.01471E+01 1.00000E+01 1.27357E+00
 -1      1182 8.16176E+01 1.00000E+01 1.27357E+00
 -1      1183 7.94118E+01 1.00000E+01 2.54713E+00
 -1      1184 8.30882E+01 1.00000E+01 1.27357E+00
 -1      1185 8.45588E+01 1.00000E+01 1.27357E+00
 -1      1186 8.23529E+01 1.00000E+01 2.54713E+00
 -1      1187 8.60294E+01 1.00000E+01 1.27357E+00
 -1      1188 8.75000E+01 1.00000E+01 1.27357E+00
 -1      1189 8.52941E+01 1.00000E+01 2.54713E+00
 -1      1190 8.89706E+01 1.00000E+01 1.27357E+00
 -1      1191 9.04412E+01 1.00000E+01 1.27357E+00
 -1      1192 8.82353E+01 1.00000E+01 2.54713E+00
 -1      1193 9.19179E+01 1.00000E+01 1.26661E+00
 -1      1194 9.33885E+01 1.00000E+01 1.26661E+00
 -1      1195 9.11826E+01 1.00000E+01 2.54018E+00
 -1      1196 9.49216E+01 1.00000E+01 1.28808E+00
 -1      1197 9.63922E+01 1.00000E+01 1.28808E+00
 -1      1198 9.41925E+01 1.00000E+01 2.55469E+00
 -1      1199 9.69248E+01 1.00000E+01 2.17069E+00
 -1      1200 5.07843E+00 1.00000E+01 8.71188E+00
 -1      1201 3.60784E+00 1.00000E+01 8.71188E+00
 -1      1202 3.07533E+00 1.00000E+01 7.82926E+00
 -1      1203 8.08239E+00 1.00000E+01 8.73321E+00
 -1      1204 6.61180E+00 1.00000E+01 8.73321E+00
 -1      1205 5.80788E+00 1.00000E+01 7.44509E+00
 -1      1206 1.10294E+01 1.00000E+01 8.72643E+00
 -1      1207 9.55882E+00 1.00000E+01 8.72643E+00
 -1      1208 8.81769E+00 1.00000E+01 7.45964E+00
 -1      1209 1.39409E+01 1.00000E+01 8.74889E+00
 -1      1210 1.24703E+01 1.00000E+01 8.74889E+00
 -1      1211 1.17350E+01 1.00000E+01 7.47532E+00
 -1      1212 1.69393E+01 1.00000E+01 8.74871E+00
 -1      1213 1.54687E+01 1.00000E+01 8.74871E+00
 -1      1214 1.47037E+01 1.00000E+01 7.49759E+00
 -1      1215 1.98529E+01 1.00000E+01 8.72643E+00
 -1      1216 1.83824E+01 1.00000E+01 8.72643E+00
 -1      1217 1.76746E+01 1.00000E+01 7.47514E+00
 -1      1218 2.27941E+01 1.00000E+01 8.72643E+00
 -1      1219 2.13235E+01 1.00000E+01 8.72643E+00
 -1      1220 2.05882E+01 1.00000E+01 7.45287E+00
 -1      1221 2.57353E+01 1.00000E+01 8.72643E+00
 -1      1222 2.42647E+01 1.00000E+01 8.72643E+00
 -1      1223 2.35294E+01 1.00000E+01 7.45287E+00
 -1      1224 2.86765E+01 1.00000E+01 8.72643E+00
 -1      1225 2.72059E+01 1.00000E+01 8.72643E+00
 -1      1226 2.64706E+01 1.00000E+01 7.45287E+00
 -1      1227 3.16176E+01 1.00000E+01 8.72643E+00
 -1      1228 3.01471E+01 1.00000E+01 8.72643E+00
 -1      1229 2.94118E+01 1.00000E+01 7.45287E+00
 -1      1230 3.45588E+01 1.00000E+01 8.72643E+00
 -1      1231 3.30882E+01 1.00000E+01 8.72643E+00
 -1      1232 3.23529E+01 1.00000E+01 7.45287E+00
 -1      1233 3.75000E+01 1.00000E+01 8.72643E+00
 -1      1234 3.60294E+01 1.00000E+01 8.72643E+00
 -1      1235 3.52941E+01 1.00000E+01 7.45287E+00
 -1      1236 4.04387E+01 1.00000E+01 8.75228E+00
 -1      1237 3.89681E+01 1.00000E+01 8.75228E+00
 -1      1238 3.82329E+01 1.00000E+01 7.47871E+00
 -1      1239 4.33778E+01 1.00000E+01 8.75379E+00
 -1      1240 4.19072E+01 1.00000E+01 8.75379E+00
 -1      1241 4.11694E+01 1.00000E+01 7.50607E+00
 -1      1242 4.63188E+01 1.00000E+01 8.74613E+00
 -1      1243 4.48482E+01 1.00000E+01 8.74613E+00
 -1      1244 4.41083E+01 1.00000E+01 7.49992E+00
 -1      1245 4.92643E+01 1.00000E+01 8.73612E+00
 -1      1246 4.77937E+01 1.00000E+01 8.73612E+00
 -1      1247 4.70536E+01 1.00000E+01 7.48225E+00
 -1      1248 5.22059E+01 1.00000E+01 8.72643E+00
 -1      1249 5.07353E+01 1.00000E+01 8.72643E+00
 -1      1250 4.99996E+01 1.00000E+01 7.46256E+00
 -1      1251 5.51471E+01 1.00000E+01 8.72643E+00
 -1      1252 5.36765E+01 1.00000E+01 8.72643E+00
 -1      1253 5.29412E+01 1.00000E+01 7.45287E+00
 -1      1254 5.80882E+01 1.00000E+01 8.72643E+00
 -1      1255 5.66176E+01 1.00000E+01 8.72643E+00
 -1      1256 5.58824E+01 1.00000E+01 7.45287E+00
 -1      1257 6.10294E+01 1.00000E+01 8.72643E+00
 -1      1258 5.95588E+01 1.00000E+01 8.72643E+00
 -1      1259 5.88235E+01 1.00000E+01 7.45287E+00
 -1      1260 6.39706E+01 1.00000E+01 8.72643E+00
 -1      1261 6.25000E+01 1.00000E+01 8.72643E+00
 -1      1262 6.17647E+01 1.00000E+01 7.45287E+00
 -1      1263 6.69118E+01 1.00000E+01 8.72643E+00
 -1      1264 6.54412E+01 1.00000E+01 8.72643E+00
 -1      1265 6.47059E+01 1.00000E+01 7.45287E+00
 -1      1266 6.98529E+01 1.00000E+01 8.72643E+00
 -1      1267 6.83824E+01 1.00000E+01 8.72643E+00
 -1      1268 6.76471E+01 1.00000E+01 7.45287E+00
 -1      1269 7.27941E+01 1.00000E+01 8.72643E+00
 -1      1270 7.13235E+01 1.00000E+01 8.72643E+00
 -1      1271 7.05882E+01 1.00000E+01 7.45287E+00
 -1      1272 7.57353E+01 1.00000E+01 8.72643E+00
 -1      1273 7.42647E+01 1.00000E+01 8.72643E+00
 -1      1274 7.35294E+01 1.00000E+01 7.45287E+00
 -1      1275 7.86765E+01 1.00000E+01 8.72643E+00
 -1      1276 7.72059E+01 1.00000E+01 8.72643E+00
 -1      1277 7.64706E+01 1.00000E+01 7.45287E+00
 -1      1278 8.16176E+01 1.00000E+01 8.72643E+00
 -1      1279 8.01471E+01 1.00000E+01 8.72643E+00
 -1      1280 7.94118E+01 1.00000E+01 7.45287E+00
 -1      1281 8.45588E+01 1.00000E+01 8.72643E+00
 -1      1282 8.30882E+01 1.00000E+01 8.72643E+00
 -1      1283 8.23529E+01 1.00000E+01 7.45287E+00
 -1      1284 8.75000E+01 1.00000E+01 8.72643E+00
 -1      1285 8.60294E+01 1.00000E+01 8.72643E+00
 -1      1286 8.52941E+01 1.00000E+01 7.45287E+00
 -1      1287 9.04412E+01 1.00000E+01 8.72643E+00
 -1      1288 8.89706E+01 1.00000E+01 8.72643E+00
 -1      1289 8.82353E+01 1.00000E+01 7.45287E+00
 -1      1290 9.33672E+01 1.00000E+01 8.75091E+00
 -1      1291 9.18966E+01 1.00000E+01 8.75091E+00
 -1      1292 9.11613E+01 1.00000E+01 7.47734E+00
 -1      1293 9.63852E+01 1.00000E+01 8.71230E+00
 -1      1294 9.49146E+01 1.00000E+01 8.71230E+00
 -1      1295 9.41641E+01 1.00000E+01 7.46321E+00
 -1      1296 9.69252E+01 1.00000E+01 7.82263E+00
 -1      1297 6.98529E+01 1.00000E+01 3.77357E+00
 -1      1298 7.13235E+01 1.00000E+01 3.77357E+00
 -1      1299 6.69118E+01 1.00000E+01 3.77357E+00
 -1      1300 6.83824E+01 1.00000E+01 3.77357E+00
 -1      1301 6.91176E+01 1.00000E+01 5.00000E+00
 -1      1302 7.86765E+01 1.00000E+01 3.77357E+00
 -1      1303 8.01471E+01 1.00000E+01 3.77357E+00
 -1      1304 8.16176E+01 1.00000E+01 3.77357E+00
 -1      1305 8.30882E+01 1.00000E+01 3.77357E+00
 -1      1306 8.08824E+01 1.00000E+01 5.00000E+00
 -1      1307 9.18932E+01 1.00000E+01 6.25206E+00
 -1      1308 9.04378E+01 1.00000E+01 6.22758E+00
 -1      1309 9.25657E+01 1.00000E+01 5.01525E+00
 -1      1310 9.32892E+01 1.00000E+01 6.26502E+00
 -1      1311 9.48367E+01 1.00000E+01 6.22640E+00
 -1      1312 5.80882E+01 1.00000E+01 3.77357E+00
 -1      1313 5.95588E+01 1.00000E+01 3.77357E+00
 -1      1314 5.51471E+01 1.00000E+01 3.77357E+00
 -1      1315 5.66176E+01 1.00000E+01 3.77357E+00
 -1      1316 5.73529E+01 1.00000E+01 5.00000E+00
 -1      1317 6.10294E+01 1.00000E+01 3.77357E+00
 -1      1318 6.25000E+01 1.00000E+01 3.77357E+00
 -1      1319 6.39706E+01 1.00000E+01 3.77357E+00
 -1      1320 6.54412E+01 1.00000E+01 3.77357E+00
 -1      1321 6.32353E+01 1.00000E+01 5.00000E+00
 -1      1322 7.27941E+01 1.00000E+01 3.77357E+00
 -1      1323 7.42647E+01 1.00000E+01 3.77357E+00
 -1      1324 7.57353E+01 1.00000E+01 3.77357E+00
 -1      1325 7.72059E+01 1.00000E+01 3.77357E+00
 -1      1326 7.50000E+01 1.00000E+01 5.00000E+00
 -1      1327 8.89706E+01 1.00000E+01 6.22643E+00
 -1      1328 8.75000E+01 1.00000E+01 6.22643E+00
 -1      1329 8.60294E+01 1.00000E+01 6.22643E+00
 -1      1330 8.45588E+01 1.00000E+01 6.22643E+00
 -1      1331 8.67647E+01 1.00000E+01 5.00000E+00
 -1      1332 5.07353E+01 1.00000E+01 6.22643E+00
 -1      1333 4.92643E+01 1.00000E+01 6.23612E+00
 -1      1334 5.36765E+01 1.00000E+01 6.22643E+00
 -1      1335 5.22059E+01 1.00000E+01 6.22643E+00
 -1      1336 5.14706E+01 1.00000E+01 5.00000E+00
 -1      1337 1.39632E+01 1.00000E+01 3.76737E+00
 -1      1338 1.54360E+01 1.00000E+01 3.77042E+00
 -1      1339 1.61731E+01 1.00000E+01 5.00412E+00
 -1      1340 1.69100E+01 1.00000E+01 3.76627E+00
 -1      1341 1.83823E+01 1.00000E+01 3.76915E+00
 -1      1342 2.27941E+01 1.00000E+01 3.77357E+00
 -1      1343 2.42647E+01 1.00000E+01 3.77357E+00
 -1      1344 1.98529E+01 1.00000E+01 3.76916E+00
 -1      1345 2.13235E+01 1.00000E+01 3.77357E+00
 -1      1346 2.20588E+01 1.00000E+01 5.00000E+00
 -1      1347 9.55872E+00 1.00000E+01 6.22643E+00
 -1      1348 8.08228E+00 1.00000E+01 6.23321E+00
 -1      1349 1.10190E+01 1.00000E+01 6.22549E+00
 -1      1350 1.02836E+01 1.00000E+01 4.99906E+00
 -1      1351 1.24599E+01 1.00000E+01 6.24794E+00
 -1      1352 3.45588E+01 1.00000E+01 3.77357E+00
 -1      1353 3.60294E+01 1.00000E+01 3.77357E+00
 -1      1354 3.16176E+01 1.00000E+01 3.77357E+00
 -1      1355 3.30882E+01 1.00000E+01 3.77357E+00
 -1      1356 3.38235E+01 1.00000E+01 5.00000E+00
 -1      1357 4.04254E+01 1.00000E+01 3.77872E+00
 -1      1358 4.18904E+01 1.00000E+01 3.78337E+00
 -1      1359 4.26268E+01 1.00000E+01 5.02437E+00
 -1      1360 4.33700E+01 1.00000E+01 3.78043E+00
 -1      1361 4.48395E+01 1.00000E+01 3.77193E+00
 -1      1362 2.57353E+01 1.00000E+01 3.77357E+00
 -1      1363 2.72059E+01 1.00000E+01 3.77357E+00
 -1      1364 2.86765E+01 1.00000E+01 3.77357E+00
 -1      1365 3.01471E+01 1.00000E+01 3.77357E+00
 -1      1366 2.79412E+01 1.00000E+01 5.00000E+00
 -1      1367 6.68734E+00 1.00000E+01 6.22310E+00
 -1      1368 5.15397E+00 1.00000E+01 6.20177E+00
 -1      1369 4.89999E+00 1.00000E+01 4.99573E+00
 -1      1370 4.02053E+00 1.00000E+01 6.21772E+00
 -1      1371 2.96580E+00 1.00000E+01 5.63084E+00
 -1      1372 3.21979E+00 1.00000E+01 6.83688E+00
 -1      1373 8.08813E+00 1.00000E+01 3.77357E+00
 -1      1374 9.55178E+00 1.00000E+01 3.76956E+00
 -1      1375 7.42837E+00 1.00000E+01 4.98989E+00
 -1      1376 6.69319E+00 1.00000E+01 3.76345E+00
 -1      1377 5.15842E+00 1.00000E+01 3.78166E+00
 -1      1378 9.33106E+01 1.00000E+01 3.78072E+00
 -1      1379 9.48437E+01 1.00000E+01 3.80218E+00
 -1      1380 9.50966E+01 1.00000E+01 5.00987E+00
 -1      1381 9.59786E+01 1.00000E+01 3.78384E+00
 -1      1382 9.67803E+01 1.00000E+01 3.16308E+00
 -1      1383 9.70332E+01 1.00000E+01 4.37076E+00
 -1      1384 7.13235E+01 1.00000E+01 6.22643E+00
 -1      1385 6.98529E+01 1.00000E+01 6.22643E+00
 -1      1386 7.42647E+01 1.00000E+01 6.22643E+00
 -1      1387 7.27941E+01 1.00000E+01 6.22643E+00
 -1      1388 7.20588E+01 1.00000E+01 5.00000E+00
 -1      1389 4.92647E+01 1.00000E+01 3.77357E+00
 -1      1390 5.07353E+01 1.00000E+01 3.77357E+00
 -1      1391 4.63126E+01 1.00000E+01 3.76584E+00
 -1      1392 4.77910E+01 1.00000E+01 3.77819E+00
 -1      1393 4.85263E+01 1.00000E+01 5.00462E+00
 -1      1394 9.04378E+01 1.00000E+01 3.77471E+00
 -1      1395 9.19145E+01 1.00000E+01 3.76776E+00
 -1      1396 8.75000E+01 1.00000E+01 3.77357E+00
 -1      1397 8.89706E+01 1.00000E+01 3.77357E+00
 -1      1398 8.97025E+01 1.00000E+01 5.00115E+00
 -1      1399 5.95588E+01 1.00000E+01 6.22643E+00
 -1      1400 5.80882E+01 1.00000E+01 6.22643E+00
 -1      1401 6.25000E+01 1.00000E+01 6.22643E+00
 -1      1402 6.10294E+01 1.00000E+01 6.22643E+00
 -1      1403 6.02941E+01 1.00000E+01 5.00000E+00
 -1      1404 8.01471E+01 1.00000E+01 6.22643E+00
 -1      1405 7.86765E+01 1.00000E+01 6.22643E+00
 -1      1406 7.72059E+01 1.00000E+01 6.22643E+00
 -1      1407 7.57353E+01 1.00000E+01 6.22643E+00
 -1      1408 7.79412E+01 1.00000E+01 5.00000E+00
 -1      1409 6.54412E+01 1.00000E+01 6.22643E+00
 -1      1410 6.39706E+01 1.00000E+01 6.22643E+00
 -1      1411 6.83824E+01 1.00000E+01 6.22643E+00
 -1      1412 6.69118E+01 1.00000E+01 6.22643E+00
 -1      1413 6.61765E+01 1.00000E+01 5.00000E+00
 -1      1414 2.13235E+01 1.00000E+01 6.22643E+00
 -1      1415 1.98529E+01 1.00000E+01 6.22643E+00
 -1      1416 1.83824E+01 1.00000E+01 6.22642E+00
 -1      1417 1.69393E+01 1.00000E+01 6.24869E+00
 -1      1418 1.91176E+01 1.00000E+01 4.99999E+00
 -1      1419 3.60294E+01 1.00000E+01 6.22643E+00
 -1      1420 3.45588E+01 1.00000E+01 6.22643E+00
 -1      1421 3.89681E+01 1.00000E+01 6.25227E+00
 -1      1422 3.75000E+01 1.00000E+01 6.22642E+00
 -1      1423 3.67647E+01 1.00000E+01 4.99999E+00
 -1      1424 4.77906E+01 1.00000E+01 6.24075E+00
 -1      1425 4.63157E+01 1.00000E+01 6.25075E+00
 -1      1426 4.55795E+01 1.00000E+01 5.01534E+00
 -1      1427 4.48425E+01 1.00000E+01 6.25684E+00
 -1      1428 4.33721E+01 1.00000E+01 6.26451E+00
 -1      1429 2.72059E+01 1.00000E+01 6.22643E+00
 -1      1430 2.57353E+01 1.00000E+01 6.22643E+00
 -1      1431 2.42647E+01 1.00000E+01 6.22643E+00
 -1      1432 2.27941E+01 1.00000E+01 6.22643E+00
 -1      1433 2.50000E+01 1.00000E+01 5.00000E+00
 -1      1434 3.30882E+01 1.00000E+01 6.22643E+00
 -1      1435 3.16176E+01 1.00000E+01 6.22643E+00
 -1      1436 3.01471E+01 1.00000E+01 6.22643E+00
 -1      1437 2.86765E+01 1.00000E+01 6.22643E+00
 -1      1438 3.08824E+01 1.00000E+01 5.00000E+00
 -1      1439 2.92142E+00 1.00000E+01 4.41650E+00
 -1      1440 4.02498E+00 1.00000E+01 3.79761E+00
 -1      1441 3.17986E+00 1.00000E+01 3.20243E+00
 -1      1442 9.70776E+01 1.00000E+01 5.58511E+00
 -1      1443 9.68176E+01 1.00000E+01 6.80164E+00
 -1      1444 9.59715E+01 1.00000E+01 6.20806E+00
 -1      1445 1.10120E+01 1.00000E+01 3.76862E+00
 -1      1446 1.24856E+01 1.00000E+01 3.76229E+00
 -1      1447 1.32215E+01 1.00000E+01 5.00319E+00
 -1      1448 1.39375E+01 1.00000E+01 6.25302E+00
 -1      1449 1.54653E+01 1.00000E+01 6.25284E+00
 -1      1450 8.30882E+01 1.00000E+01 6.22643E+00
 -1      1451 8.16176E+01 1.00000E+01 6.22643E+00
 -1      1452 5.66176E+01 1.00000E+01 6.22643E+00
 -1      1453 5.51471E+01 1.00000E+01 6.22643E+00
 -1      1454 5.22059E+01 1.00000E+01 3.77357E+00
 -1      1455 5.36765E+01 1.00000E+01 3.77357E+00
 -1      1456 5.44118E+01 1.00000E+01 5.00000E+00
 -1      1457 3.75000E+01 1.00000E+01 3.77356E+00
 -1      1458 3.89695E+01 1.00000E+01 3.76506E+00
 -1      1459 3.96912E+01 1.00000E+01 5.01364E+00
 -1      1460 4.04241E+01 1.00000E+01 6.26593E+00
 -1      1461 4.18925E+01 1.00000E+01 6.26745E+00
 -1      1462 8.45588E+01 1.00000E+01 3.77357E+00
 -1      1463 8.60294E+01 1.00000E+01 3.77357E+00
 -1      1464 8.38235E+01 1.00000E+01 5.00000E+00
 -1      1465 6.61765E+01 2.54713E+00 0.00000E+00
 -1      1466 7.79412E+01 2.54713E+00 0.00000E+00
 -1      1467 8.38235E+01 7.45287E+00 0.00000E+00
 -1      1468 9.26167E+01 2.49818E+00 0.00000E+00
 -1      1469 5.73529E+01 2.53142E+00 0.00000E+00
 -1      1470 7.20588E+01 7.45287E+00 0.00000E+00
 -1      1471 5.14706E+01 2.54713E+00 0.00000E+00
 -1      1472 1.61765E+01 7.45287E+00 0.00000E+00
 -1      1473 2.20588E+01 2.53142E+00 0.00000E+00
 -1      1474 1.02820E+01 2.51769E+00 0.00000E+00
 -1      1475 3.38140E+01 7.49225E+00 0.00000E+00
 -1      1476 4.26604E+01 2.53943E+00 0.00000E+00
 -1      1477 2.79412E+01 2.53142E+00 0.00000E+00
 -1      1478 4.26854E+00 7.42569E+00 0.00000E+00
 -1      1479 6.32353E+01 7.45287E+00 0.00000E+00
 -1      1480 8.67647E+01 2.54713E+00 0.00000E+00
 -1      1481 9.57256E+01 7.42384E+00 0.00000E+00
 -1      1482 4.85294E+01 7.45287E+00 0.00000E+00
 -1      1483 8.97059E+01 7.45287E+00 0.00000E+00
 -1      1484 5.44118E+01 7.45287E+00 0.00000E+00
 -1      1485 3.67647E+01 2.54713E+00 0.00000E+00
 -1      1486 2.50000E+01 7.49970E+00 0.00000E+00
 -1      1487 3.97154E+01 7.49225E+00 0.00000E+00
 -1      1488 2.07239E+00 3.81746E+00 0.00000E+00
 -1      1489 9.79237E+01 3.82131E+00 0.00000E+00
 -1      1490 7.79412E+01 7.45287E+00 0.00000E+00
 -1      1491 7.20588E+01 2.54713E+00 0.00000E+00
 -1      1492 1.61765E+01 2.54713E+00 0.00000E+00
 -1      1493 1.02756E+01 7.48718E+00 0.00000E+00
 -1      1494 7.31158E+00 7.47675E+00 0.00000E+00
 -1      1495 6.00669E+00 4.96818E+00 0.00000E+00
 -1      1496 9.26593E+01 7.46678E+00 0.00000E+00
 -1      1497 6.32353E+01 2.54713E+00 0.00000E+00
 -1      1498 6.02941E+01 2.52880E+00 0.00000E+00
 -1      1499 5.88235E+01 5.00974E+00 0.00000E+00
 -1      1500 8.08824E+01 2.54713E+00 0.00000E+00
 -1      1501 6.91176E+01 7.45287E+00 0.00000E+00
 -1      1502 4.85294E+01 2.54713E+00 0.00000E+00
 -1      1503 4.55905E+01 2.53013E+00 0.00000E+00
 -1      1504 4.41469E+01 5.02730E+00 0.00000E+00
 -1      1505 8.67647E+01 7.45287E+00 0.00000E+00
 -1      1506 3.38102E+01 2.52371E+00 0.00000E+00
 -1      1507 8.08824E+01 7.45287E+00 0.00000E+00
 -1      1508 3.67647E+01 7.49742E+00 0.00000E+00
 -1      1509 2.50000E+01 2.52843E+00 0.00000E+00
 -1      1510 3.08668E+01 2.53290E+00 0.00000E+00
 -1      1511 2.93825E+01 5.02643E+00 0.00000E+00
 -1      1512 8.97059E+01 2.54713E+00 0.00000E+00
 -1      1513 5.14706E+01 7.45287E+00 0.00000E+00
 -1      1514 1.91176E+01 2.52880E+00 0.00000E+00
 -1      1515 2.05882E+01 5.00974E+00 0.00000E+00
 -1      1516 1.32337E+01 7.47182E+00 0.00000E+00
 -1      1517 1.32343E+01 2.52860E+00 0.00000E+00
 -1      1518 3.97215E+01 2.52243E+00 0.00000E+00
 -1      1519 7.50000E+01 2.54713E+00 0.00000E+00
 -1      1520 6.91176E+01 2.54713E+00 0.00000E+00
 -1      1521 5.44118E+01 2.53827E+00 0.00000E+00
 -1      1522 8.38235E+01 2.54713E+00 0.00000E+00
 -1      1523 7.50000E+01 7.45287E+00 0.00000E+00
 -1      1524 6.61765E+01 7.45287E+00 0.00000E+00
 -1      1525 8.80603E+00 4.99155E+00 0.00000E+00
 -1      1526 7.35907E+00 2.48863E+00 0.00000E+00
 -1      1527 2.16506E+00 6.25000E+00 0.00000E+00
 -1      1528 5.72728E+01 7.49911E+00 0.00000E+00
 -1      1529 6.03742E+01 7.49911E+00 0.00000E+00
 -1      1530 2.20455E+01 7.50142E+00 0.00000E+00
 -1      1531 1.90932E+01 7.49546E+00 0.00000E+00
 -1      1532 2.79363E+01 7.51221E+00 0.00000E+00
 -1      1533 4.11878E+01 5.02143E+00 0.00000E+00
 -1      1534 4.55931E+01 7.50455E+00 0.00000E+00
 -1      1535 3.23416E+01 5.02041E+00 0.00000E+00
 -1      1536 9.39618E+01 4.97179E+00 0.00000E+00
 -1      1537 9.11697E+01 4.99771E+00 0.00000E+00
 -1      1538 7.64706E+01 5.00000E+00 0.00000E+00
 -1      1539 7.35294E+01 5.00000E+00 0.00000E+00
 -1      1540 7.05882E+01 5.00000E+00 0.00000E+00
 -1      1541 8.82353E+01 5.00000E+00 0.00000E+00
 -1      1542 8.23529E+01 5.00000E+00 0.00000E+00
 -1      1543 5.29412E+01 5.00000E+00 0.00000E+00
 -1      1544 6.47059E+01 5.00000E+00 0.00000E+00
 -1      1545 1.47054E+01 5.00007E+00 0.00000E+00
 -1      1546 1.17562E+01 4.99949E+00 0.00000E+00
 -1      1547 7.94118E+01 5.00000E+00 0.00000E+00
 -1      1548 6.76471E+01 5.00000E+00 0.00000E+00
 -1      1549 3.82414E+01 5.01344E+00 0.00000E+00
 -1      1550 8.52941E+01 5.00000E+00 0.00000E+00
 -1      1551 3.52894E+01 5.01573E+00 0.00000E+00
 -1      1552 5.00000E+01 5.00000E+00 0.00000E+00
 -1      1553 5.58824E+01 4.99998E+00 0.00000E+00
 -1      1554 6.17647E+01 4.99998E+00 0.00000E+00
 -1      1555 4.26562E+01 7.50759E+00 0.00000E+00
 -1      1556 4.70588E+01 4.99998E+00 0.00000E+00
 -1      1557 1.76471E+01 4.99998E+00 0.00000E+00
 -1      1558 3.08732E+01 7.50855E+00 0.00000E+00
 -1      1559 2.64691E+01 5.00425E+00 0.00000E+00
 -1      1560 2.35276E+01 5.00892E+00 0.00000E+00
 -1      1561 9.78349E+01 6.25000E+00 0.00000E+00
 -1      1562 4.27989E+00 2.57297E+00 0.00000E+00
 -1      1563 9.57116E+01 2.57540E+00 0.00000E+00
 -1      1564 3.75851E+00 5.00686E+00 0.00000E+00
 -1      1565 1.87496E+00 8.23514E+00 0.00000E+00
 -1      1566 1.85869E+00 1.77809E+00 0.00000E+00
 -1      1567 9.81239E+01 8.23477E+00 0.00000E+00
 -1      1568 9.81388E+01 1.77934E+00 0.00000E+00
 -1      1569 9.62315E+01 5.00847E+00 0.00000E+00
 -1      1570 9.29345E-01 2.13904E+00 0.00000E+00
 -1      1571 9.29345E-01 8.89044E-01 0.00000E+00
 -1      1572 2.39993E+00 8.89044E-01 0.00000E+00
 -1      1573 9.37478E-01 9.11757E+00 0.00000E+00
 -1      1574 9.37478E-01 7.86757E+00 0.00000E+00
 -1      1575 2.40807E+00 9.11757E+00 0.00000E+00
 -1      1576 9.90694E+01 8.89672E-01 0.00000E+00
 -1      1577 9.90694E+01 2.13967E+00 0.00000E+00
 -1      1578 9.75988E+01 8.89672E-01 0.00000E+00
 -1      1579 9.90619E+01 7.86738E+00 0.00000E+00
 -1      1580 9.90619E+01 9.11738E+00 0.00000E+00
 -1      1581 9.75914E+01 9.11738E+00 0.00000E+00
 -1      1582 1.03619E+00 4.40873E+00 0.00000E+00
 -1      1583 1.03619E+00 3.15873E+00 0.00000E+00
 -1      1584 1.96554E+00 2.79778E+00 0.00000E+00
 -1      1585 1.08253E+00 6.87500E+00 0.00000E+00
 -1      1586 1.08253E+00 5.62500E+00 0.00000E+00
 -1      1587 2.11873E+00 5.03373E+00 0.00000E+00
 -1      1588 2.02001E+00 7.24257E+00 0.00000E+00
 -1      1589 9.89619E+01 3.16066E+00 0.00000E+00
 -1      1590 9.89619E+01 4.41066E+00 0.00000E+00
 -1      1591 9.80313E+01 2.80033E+00 0.00000E+00
 -1      1592 9.89175E+01 5.62500E+00 0.00000E+00
 -1      1593 9.89175E+01 6.87500E+00 0.00000E+00
 -1      1594 9.78793E+01 5.03566E+00 0.00000E+00
 -1      1595 9.79794E+01 7.24238E+00 0.00000E+00
 -1      1596 3.61053E+00 1.28649E+00 0.00000E+00
 -1      1597 5.08112E+00 1.28649E+00 0.00000E+00
 -1      1598 3.06929E+00 2.17553E+00 0.00000E+00
 -1      1599 6.62071E+00 1.24431E+00 0.00000E+00
 -1      1600 8.09130E+00 1.24431E+00 0.00000E+00
 -1      1601 5.81948E+00 2.53080E+00 0.00000E+00
 -1      1602 9.55278E+00 1.25885E+00 0.00000E+00
 -1      1603 1.10234E+01 1.25885E+00 0.00000E+00
 -1      1604 8.82055E+00 2.50316E+00 0.00000E+00
 -1      1605 1.24995E+01 1.26430E+00 0.00000E+00
 -1      1606 1.39701E+01 1.26430E+00 0.00000E+00
 -1      1607 1.17581E+01 2.52315E+00 0.00000E+00
 -1      1608 1.54412E+01 1.27357E+00 0.00000E+00
 -1      1609 1.69118E+01 1.27357E+00 0.00000E+00
 -1      1610 1.47054E+01 2.53787E+00 0.00000E+00
 -1      1611 1.83824E+01 1.26440E+00 0.00000E+00
 -1      1612 1.98529E+01 1.26440E+00 0.00000E+00
 -1      1613 1.76471E+01 2.53797E+00 0.00000E+00
 -1      1614 2.13235E+01 1.26571E+00 0.00000E+00
 -1      1615 2.27941E+01 1.26571E+00 0.00000E+00
 -1      1616 2.05882E+01 2.53011E+00 0.00000E+00
 -1      1617 2.42647E+01 1.26421E+00 0.00000E+00
 -1      1618 2.57353E+01 1.26421E+00 0.00000E+00
 -1      1619 2.35294E+01 2.52992E+00 0.00000E+00
 -1      1620 2.72059E+01 1.26571E+00 0.00000E+00
 -1      1621 2.86765E+01 1.26571E+00 0.00000E+00
 -1      1622 2.64706E+01 2.52992E+00 0.00000E+00
 -1      1623 3.01393E+01 1.26645E+00 0.00000E+00
 -1      1624 3.16099E+01 1.26645E+00 0.00000E+00
 -1      1625 2.94040E+01 2.53216E+00 0.00000E+00
 -1      1626 3.30816E+01 1.26186E+00 0.00000E+00
 -1      1627 3.45522E+01 1.26186E+00 0.00000E+00
 -1      1628 3.23385E+01 2.52831E+00 0.00000E+00
 -1      1629 3.60294E+01 1.27357E+00 0.00000E+00
 -1      1630 3.75000E+01 1.27357E+00 0.00000E+00
 -1      1631 3.52874E+01 2.53542E+00 0.00000E+00
 -1      1632 3.89784E+01 1.26122E+00 0.00000E+00
 -1      1633 4.04490E+01 1.26122E+00 0.00000E+00
 -1      1634 3.82431E+01 2.53478E+00 0.00000E+00
 -1      1635 4.19184E+01 1.26971E+00 0.00000E+00
 -1      1636 4.33890E+01 1.26971E+00 0.00000E+00
 -1      1637 4.11909E+01 2.53093E+00 0.00000E+00
 -1      1638 4.48541E+01 1.26507E+00 0.00000E+00
 -1      1639 4.63246E+01 1.26507E+00 0.00000E+00
 -1      1640 4.41254E+01 2.53478E+00 0.00000E+00
 -1      1641 4.77941E+01 1.27357E+00 0.00000E+00
 -1      1642 4.92647E+01 1.27357E+00 0.00000E+00
 -1      1643 4.70599E+01 2.53863E+00 0.00000E+00
 -1      1644 5.07353E+01 1.27357E+00 0.00000E+00
 -1      1645 5.22059E+01 1.27357E+00 0.00000E+00
 -1      1646 5.00000E+01 2.54713E+00 0.00000E+00
 -1      1647 5.36765E+01 1.26914E+00 0.00000E+00
 -1      1648 5.51471E+01 1.26914E+00 0.00000E+00
 -1      1649 5.29412E+01 2.54270E+00 0.00000E+00
 -1      1650 5.66176E+01 1.26571E+00 0.00000E+00
 -1      1651 5.80882E+01 1.26571E+00 0.00000E+00
 -1      1652 5.58824E+01 2.53485E+00 0.00000E+00
 -1      1653 5.95588E+01 1.26440E+00 0.00000E+00
 -1      1654 6.10294E+01 1.26440E+00 0.00000E+00
 -1      1655 5.88235E+01 2.53011E+00 0.00000E+00
 -1      1656 6.25000E+01 1.27357E+00 0.00000E+00
 -1      1657 6.39706E+01 1.27357E+00 0.00000E+00
 -1      1658 6.17647E+01 2.53797E+00 0.00000E+00
 -1      1659 6.54412E+01 1.27357E+00 0.00000E+00
 -1      1660 6.69118E+01 1.27357E+00 0.00000E+00
 -1      1661 6.47059E+01 2.54713E+00 0.00000E+00
 -1      1662 6.83824E+01 1.27357E+00 0.00000E+00
 -1      1663 6.98529E+01 1.27357E+00 0.00000E+00
 -1      1664 6.76471E+01 2.54713E+00 0.00000E+00
 -1      1665 7.13235E+01 1.27357E+00 0.00000E+00
 -1      1666 7.27941E+01 1.27357E+00 0.00000E+00
 -1      1667 7.05882E+01 2.54713E+00 0.00000E+00
 -1      1668 7.42647E+01 1.27357E+00 0.00000E+00
 -1      1669 7.57353E+01 1.27357E+00 0.00000E+00
 -1      1670 7.35294E+01 2.54713E+00 0.00000E+00
 -1      1671 7.72059E+01 1.27357E+00 0.00000E+00
 -1      1672 7.86765E+01 1.27357E+00 0.00000E+00
 -1      1673 7.64706E+01 2.54713E+00 0.00000E+00
 -1      1674 8.01471E+01 1.27357E+00 0.00000E+00
 -1      1675 8.16176E+01 1.27357E+00 0.00000E+00
 -1      1676 7.94118E+01 2.54713E+00 0.00000E+00
 -1      1677 8.30882E+01 1.27357E+00 0.00000E+00
 -1      1678 8.45588E+01 1.27357E+00 0.00000E+00
 -1      1679 8.23529E+01 2.54713E+00 0.00000E+00
 -1      1680 8.60294E+01 1.27357E+00 0.00000E+00
 -1      1681 8.75000E+01 1.27357E+00 0.00000E+00
 -1      1682 8.52941E+01 2.54713E+00 0.00000E+00
 -1      1683 8.89706E+01 1.27357E+00 0.00000E+00
 -1      1684 9.04412E+01 1.27357E+00 0.00000E+00
 -1      1685 8.82353E+01 2.54713E+00 0.00000E+00
 -1      1686 9.18966E+01 1.24909E+00 0.00000E+00
 -1      1687 9.33672E+01 1.24909E+00 0.00000E+00
 -1      1688 9.11613E+01 2.52266E+00 0.00000E+00
 -1      1689 9.49146E+01 1.28770E+00 0.00000E+00
 -1      1690 9.63852E+01 1.28770E+00 0.00000E+00
 -1      1691 9.41641E+01 2.53679E+00 0.00000E+00
 -1      1692 9.69252E+01 2.17737E+00 0.00000E+00
 -1      1693 5.07545E+00 8.71284E+00 0.00000E+00
 -1      1694 3.60486E+00 8.71284E+00 0.00000E+00
 -1      1695 3.07175E+00 7.83041E+00 0.00000E+00
 -1      1696 8.06756E+00 8.73837E+00 0.00000E+00
 -1      1697 6.59697E+00 8.73837E+00 0.00000E+00
 -1      1698 5.79006E+00 7.45122E+00 0.00000E+00
 -1      1699 1.10201E+01 8.74359E+00 0.00000E+00
 -1      1700 9.54956E+00 8.74359E+00 0.00000E+00
 -1      1701 8.79358E+00 7.48196E+00 0.00000E+00
 -1      1702 1.39698E+01 8.73591E+00 0.00000E+00
 -1      1703 1.24992E+01 8.73591E+00 0.00000E+00
 -1      1704 1.17547E+01 7.47950E+00 0.00000E+00
 -1      1705 1.69118E+01 8.72643E+00 0.00000E+00
 -1      1706 1.54412E+01 8.72643E+00 0.00000E+00
 -1      1707 1.47051E+01 7.46234E+00 0.00000E+00
 -1      1708 1.98407E+01 8.74773E+00 0.00000E+00
 -1      1709 1.83701E+01 8.74773E+00 0.00000E+00
 -1      1710 1.76348E+01 7.47416E+00 0.00000E+00
 -1      1711 2.27874E+01 8.75071E+00 0.00000E+00
 -1      1712 2.13169E+01 8.75071E+00 0.00000E+00
 -1      1713 2.05693E+01 7.49844E+00 0.00000E+00
 -1      1714 2.57353E+01 8.74985E+00 0.00000E+00
 -1      1715 2.42647E+01 8.74985E+00 0.00000E+00
 -1      1716 2.35227E+01 7.50056E+00 0.00000E+00
 -1      1717 2.86740E+01 8.75611E+00 0.00000E+00
 -1      1718 2.72034E+01 8.75611E+00 0.00000E+00
 -1      1719 2.64681E+01 7.50595E+00 0.00000E+00
 -1      1720 3.16131E+01 8.75428E+00 0.00000E+00
 -1      1721 3.01425E+01 8.75428E+00 0.00000E+00
 -1      1722 2.94047E+01 7.51038E+00 0.00000E+00
 -1      1723 3.45541E+01 8.74613E+00 0.00000E+00
 -1      1724 3.30835E+01 8.74613E+00 0.00000E+00
 -1      1725 3.23436E+01 7.50040E+00 0.00000E+00
 -1      1726 3.75000E+01 8.74871E+00 0.00000E+00
 -1      1727 3.60294E+01 8.74871E+00 0.00000E+00
 -1      1728 3.52893E+01 7.49483E+00 0.00000E+00
 -1      1729 4.04459E+01 8.74613E+00 0.00000E+00
 -1      1730 3.89754E+01 8.74613E+00 0.00000E+00
 -1      1731 3.82401E+01 7.49483E+00 0.00000E+00
 -1      1732 4.33869E+01 8.75379E+00 0.00000E+00
 -1      1733 4.19163E+01 8.75379E+00 0.00000E+00
 -1      1734 4.11858E+01 7.49992E+00 0.00000E+00
 -1      1735 4.63260E+01 8.75228E+00 0.00000E+00
 -1      1736 4.48554E+01 8.75228E+00 0.00000E+00
 -1      1737 4.41247E+01 7.50607E+00 0.00000E+00
 -1      1738 4.92647E+01 8.72643E+00 0.00000E+00
 -1      1739 4.77941E+01 8.72643E+00 0.00000E+00
 -1      1740 4.70613E+01 7.47871E+00 0.00000E+00
 -1      1741 5.22059E+01 8.72643E+00 0.00000E+00
 -1      1742 5.07353E+01 8.72643E+00 0.00000E+00
 -1      1743 5.00000E+01 7.45287E+00 0.00000E+00
 -1      1744 5.51471E+01 8.72643E+00 0.00000E+00
 -1      1745 5.36765E+01 8.72643E+00 0.00000E+00
 -1      1746 5.29412E+01 7.45287E+00 0.00000E+00
 -1      1747 5.80482E+01 8.74956E+00 0.00000E+00
 -1      1748 5.65776E+01 8.74956E+00 0.00000E+00
 -1      1749 5.58423E+01 7.47599E+00 0.00000E+00
 -1      1750 6.10695E+01 8.74956E+00 0.00000E+00
 -1      1751 5.95989E+01 8.74956E+00 0.00000E+00
 -1      1752 5.88235E+01 7.49911E+00 0.00000E+00
 -1      1753 6.39706E+01 8.72643E+00 0.00000E+00
 -1      1754 6.25000E+01 8.72643E+00 0.00000E+00
 -1      1755 6.18048E+01 7.47599E+00 0.00000E+00
 -1      1756 6.69118E+01 8.72643E+00 0.00000E+00
 -1      1757 6.54412E+01 8.72643E+00 0.00000E+00
 -1      1758 6.47059E+01 7.45287E+00 0.00000E+00
 -1      1759 6.98529E+01 8.72643E+00 0.00000E+00
 -1      1760 6.83824E+01 8.72643E+00 0.00000E+00
 -1      1761 6.76471E+01 7.45287E+00 0.00000E+00
 -1      1762 7.27941E+01 8.72643E+00 0.00000E+00
 -1      1763 7.13235E+01 8.72643E+00 0.00000E+00
 -1      1764 7.05882E+01 7.45287E+00 0.00000E+00
 -1      1765 7.57353E+01 8.72643E+00 0.00000E+00
 -1      1766 7.42647E+01 8.72643E+00 0.00000E+00
 -1      1767 7.35294E+01 7.45287E+00 0.00000E+00
 -1      1768 7.86765E+01 8.72643E+00 0.00000E+00
 -1      1769 7.72059E+01 8.72643E+00 0.00000E+00
 -1      1770 7.64706E+01 7.45287E+00 0.00000E+00
 -1      1771 8.16176E+01 8.72643E+00 0.00000E+00
 -1      1772 8.01471E+01 8.72643E+00 0.00000E+00
 -1      1773 7.94118E+01 7.45287E+00 0.00000E+00
 -1      1774 8.45588E+01 8.72643E+00 0.00000E+00
 -1      1775 8.30882E+01 8.72643E+00 0.00000E+00
 -1      1776 8.23529E+01 7.45287E+00 0.00000E+00
 -1      1777 8.75000E+01 8.72643E+00 0.00000E+00
 -1      1778 8.60294E+01 8.72643E+00 0.00000E+00
 -1      1779 8.52941E+01 7.45287E+00 0.00000E+00
 -1      1780 9.04412E+01 8.72643E+00 0.00000E+00
 -1      1781 8.89706E+01 8.72643E+00 0.00000E+00
 -1      1782 8.82353E+01 7.45287E+00 0.00000E+00
 -1      1783 9.33885E+01 8.73339E+00 0.00000E+00
 -1      1784 9.19179E+01 8.73339E+00 0.00000E+00
 -1      1785 9.11826E+01 7.45982E+00 0.00000E+00
 -1      1786 9.63922E+01 8.71192E+00 0.00000E+00
 -1      1787 9.49216E+01 8.71192E+00 0.00000E+00
 -1      1788 9.41925E+01 7.44531E+00 0.00000E+00
 -1      1789 9.69248E+01 7.82931E+00 0.00000E+00
 -1      1790 6.39706E+01 3.77357E+00 0.00000E+00
 -1      1791 6.54412E+01 3.77357E+00 0.00000E+00
 -1      1792 6.69118E+01 3.77357E+00 0.00000E+00
 -1      1793 6.83824E+01 3.77357E+00 0.00000E+00
 -1      1794 6.61765E+01 5.00000E+00 0.00000E+00
 -1      1795 7.86765E+01 3.77357E+00 0.00000E+00
 -1      1796 8.01471E+01 3.77357E+00 0.00000E+00
 -1      1797 7.57353E+01 3.77357E+00 0.00000E+00
 -1      1798 7.72059E+01 3.77357E+00 0.00000E+00
 -1      1799 7.79412E+01 5.00000E+00 0.00000E+00
 -1      1800 8.60294E+01 6.22643E+00 0.00000E+00
 -1      1801 8.45588E+01 6.22643E+00 0.00000E+00
 -1      1802 8.30882E+01 6.22643E+00 0.00000E+00
 -1      1803 8.16176E+01 6.22643E+00 0.00000E+00
 -1      1804 8.38235E+01 5.00000E+00 0.00000E+00
 -1      1805 9.04378E+01 3.77242E+00 0.00000E+00
 -1      1806 9.18932E+01 3.74794E+00 0.00000E+00
 -1      1807 9.32892E+01 3.73498E+00 0.00000E+00
 -1      1808 9.25657E+01 4.98475E+00 0.00000E+00
 -1      1809 9.48367E+01 3.77360E+00 0.00000E+00
 -1      1810 5.80882E+01 3.77058E+00 0.00000E+00
 -1      1811 5.95588E+01 3.76927E+00 0.00000E+00
 -1      1812 5.66176E+01 3.76570E+00 0.00000E+00
 -1      1813 5.73529E+01 5.00486E+00 0.00000E+00
 -1      1814 5.51471E+01 3.76913E+00 0.00000E+00
 -1      1815 7.13235E+01 6.22643E+00 0.00000E+00
 -1      1816 6.98529E+01 6.22643E+00 0.00000E+00
 -1      1817 7.42647E+01 6.22643E+00 0.00000E+00
 -1      1818 7.27941E+01 6.22643E+00 0.00000E+00
 -1      1819 7.20588E+01 5.00000E+00 0.00000E+00
 -1      1820 4.92647E+01 3.77357E+00 0.00000E+00
 -1      1821 5.07353E+01 3.77357E+00 0.00000E+00
 -1      1822 5.22059E+01 3.77357E+00 0.00000E+00
 -1      1823 5.36765E+01 3.76914E+00 0.00000E+00
 -1      1824 5.14706E+01 5.00000E+00 0.00000E+00
 -1      1825 1.54410E+01 6.22647E+00 0.00000E+00
 -1      1826 1.39696E+01 6.23594E+00 0.00000E+00
 -1      1827 1.83701E+01 6.24772E+00 0.00000E+00
 -1      1828 1.69118E+01 6.22642E+00 0.00000E+00
 -1      1829 1.61763E+01 5.00002E+00 0.00000E+00
 -1      1830 2.27932E+01 3.77017E+00 0.00000E+00
 -1      1831 2.42638E+01 3.76867E+00 0.00000E+00
 -1      1832 1.98529E+01 3.76927E+00 0.00000E+00
 -1      1833 2.13235E+01 3.77058E+00 0.00000E+00
 -1      1834 2.20579E+01 5.00933E+00 0.00000E+00
 -1      1835 1.10191E+01 3.75859E+00 0.00000E+00
 -1      1836 1.24952E+01 3.76404E+00 0.00000E+00
 -1      1837 9.54403E+00 3.75462E+00 0.00000E+00
 -1      1838 8.08255E+00 3.74009E+00 0.00000E+00
 -1      1839 1.02811E+01 4.99552E+00 0.00000E+00
 -1      1840 3.60271E+01 6.25657E+00 0.00000E+00
 -1      1841 3.45517E+01 6.25399E+00 0.00000E+00
 -1      1842 3.30778E+01 6.25633E+00 0.00000E+00
 -1      1843 3.38155E+01 5.01807E+00 0.00000E+00
 -1      1844 3.16074E+01 6.26448E+00 0.00000E+00
 -1      1845 4.34037E+01 3.78337E+00 0.00000E+00
 -1      1846 4.48687E+01 3.77872E+00 0.00000E+00
 -1      1847 4.19241E+01 3.78043E+00 0.00000E+00
 -1      1848 4.26674E+01 5.02437E+00 0.00000E+00
 -1      1849 4.04546E+01 3.77193E+00 0.00000E+00
 -1      1850 2.57346E+01 3.76634E+00 0.00000E+00
 -1      1851 2.72051E+01 3.76783E+00 0.00000E+00
 -1      1852 2.86618E+01 3.77893E+00 0.00000E+00
 -1      1853 3.01246E+01 3.77967E+00 0.00000E+00
 -1      1854 2.79258E+01 5.01534E+00 0.00000E+00
 -1      1855 6.65914E+00 6.22246E+00 0.00000E+00
 -1      1856 5.13762E+00 6.19693E+00 0.00000E+00
 -1      1857 4.88260E+00 4.98752E+00 0.00000E+00
 -1      1858 4.01353E+00 6.21627E+00 0.00000E+00
 -1      1859 3.21680E+00 6.83784E+00 0.00000E+00
 -1      1860 2.96179E+00 5.62843E+00 0.00000E+00
 -1      1861 6.54412E+01 6.22643E+00 0.00000E+00
 -1      1862 6.39706E+01 6.22643E+00 0.00000E+00
 -1      1863 6.25000E+01 6.22642E+00 0.00000E+00
 -1      1864 6.10695E+01 6.24955E+00 0.00000E+00
 -1      1865 6.32353E+01 4.99999E+00 0.00000E+00
 -1      1866 8.75000E+01 3.77357E+00 0.00000E+00
 -1      1867 8.89706E+01 3.77357E+00 0.00000E+00
 -1      1868 8.45588E+01 3.77357E+00 0.00000E+00
 -1      1869 8.60294E+01 3.77357E+00 0.00000E+00
 -1      1870 8.67647E+01 5.00000E+00 0.00000E+00
 -1      1871 9.48437E+01 6.19782E+00 0.00000E+00
 -1      1872 9.33106E+01 6.21928E+00 0.00000E+00
 -1      1873 9.59786E+01 6.21616E+00 0.00000E+00
 -1      1874 9.50966E+01 4.99013E+00 0.00000E+00
 -1      1875 9.67803E+01 6.83692E+00 0.00000E+00
 -1      1876 9.70332E+01 5.62924E+00 0.00000E+00
 -1      1877 5.07353E+01 6.22643E+00 0.00000E+00
 -1      1878 4.92647E+01 6.22643E+00 0.00000E+00
 -1      1879 4.77941E+01 6.22642E+00 0.00000E+00
 -1      1880 4.63260E+01 6.25227E+00 0.00000E+00
 -1      1881 4.85294E+01 4.99999E+00 0.00000E+00
 -1      1882 9.19145E+01 6.23224E+00 0.00000E+00
 -1      1883 9.04378E+01 6.22529E+00 0.00000E+00
 -1      1884 8.89706E+01 6.22643E+00 0.00000E+00
 -1      1885 8.75000E+01 6.22643E+00 0.00000E+00
 -1      1886 8.97025E+01 4.99885E+00 0.00000E+00
 -1      1887 5.36765E+01 6.22643E+00 0.00000E+00
 -1      1888 5.22059E+01 6.22643E+00 0.00000E+00
 -1      1889 5.65776E+01 6.24955E+00 0.00000E+00
 -1      1890 5.51471E+01 6.22642E+00 0.00000E+00
 -1      1891 5.44118E+01 4.99999E+00 0.00000E+00
 -1      1892 3.45498E+01 3.76972E+00 0.00000E+00
 -1      1893 3.60271E+01 3.78143E+00 0.00000E+00
 -1      1894 3.75030E+01 3.78029E+00 0.00000E+00
 -1      1895 3.89814E+01 3.76794E+00 0.00000E+00
 -1      1896 3.67654E+01 5.01459E+00 0.00000E+00
 -1      1897 2.42638E+01 6.25431E+00 0.00000E+00
 -1      1898 2.27866E+01 6.25517E+00 0.00000E+00
 -1      1899 2.72027E+01 6.25823E+00 0.00000E+00
 -1      1900 2.57346E+01 6.25197E+00 0.00000E+00
 -1      1901 2.49984E+01 5.00658E+00 0.00000E+00
 -1      1902 3.89784E+01 6.25285E+00 0.00000E+00
 -1      1903 3.75030E+01 6.25543E+00 0.00000E+00
 -1      1904 4.04516E+01 6.25684E+00 0.00000E+00
 -1      1905 3.97146E+01 5.01744E+00 0.00000E+00
 -1      1906 4.19220E+01 6.26451E+00 0.00000E+00
 -1      1907 2.91545E+00 4.41216E+00 0.00000E+00
 -1      1908 3.17614E+00 3.19522E+00 0.00000E+00
 -1      1909 4.01920E+00 3.78992E+00 0.00000E+00
 -1      1910 9.70776E+01 4.41489E+00 0.00000E+00
 -1      1911 9.68176E+01 3.19836E+00 0.00000E+00
 -1      1912 9.59715E+01 3.79194E+00 0.00000E+00
 -1      1913 8.01471E+01 6.22643E+00 0.00000E+00
 -1      1914 7.86765E+01 6.22643E+00 0.00000E+00
 -1      1915 7.72059E+01 6.22643E+00 0.00000E+00
 -1      1916 7.57353E+01 6.22643E+00 0.00000E+00
 -1      1917 7.27941E+01 3.77357E+00 0.00000E+00
 -1      1918 7.42647E+01 3.77357E+00 0.00000E+00
 -1      1919 6.98529E+01 3.77357E+00 0.00000E+00
 -1      1920 7.13235E+01 3.77357E+00 0.00000E+00
 -1      1921 1.69118E+01 3.77356E+00 0.00000E+00
 -1      1922 1.83824E+01 3.76439E+00 0.00000E+00
 -1      1923 1.39699E+01 3.76433E+00 0.00000E+00
 -1      1924 1.54410E+01 3.77360E+00 0.00000E+00
 -1      1925 9.54081E+00 6.23937E+00 0.00000E+00
 -1      1926 8.05881E+00 6.23415E+00 0.00000E+00
 -1      1927 1.24949E+01 6.23565E+00 0.00000E+00
 -1      1928 1.10159E+01 6.24333E+00 0.00000E+00
 -1      1929 7.40636E+00 4.97986E+00 0.00000E+00
 -1      1930 6.68288E+00 3.72840E+00 0.00000E+00
 -1      1931 5.14329E+00 3.77057E+00 0.00000E+00
 -1      1932 6.10294E+01 3.76439E+00 0.00000E+00
 -1      1933 6.25000E+01 3.77356E+00 0.00000E+00
 -1      1934 6.02941E+01 5.00486E+00 0.00000E+00
 -1      1935 5.80482E+01 6.25442E+00 0.00000E+00
 -1      1936 5.95989E+01 6.25442E+00 0.00000E+00
 -1      1937 8.16176E+01 3.77357E+00 0.00000E+00
 -1      1938 8.30882E+01 3.77357E+00 0.00000E+00
 -1      1939 8.08824E+01 5.00000E+00 0.00000E+00
 -1      1940 6.83824E+01 6.22643E+00 0.00000E+00
 -1      1941 6.69118E+01 6.22643E+00 0.00000E+00
 -1      1942 6.91176E+01 5.00000E+00 0.00000E+00
 -1      1943 4.63246E+01 3.76506E+00 0.00000E+00
 -1      1944 4.77941E+01 3.77356E+00 0.00000E+00
 -1      1945 4.56029E+01 5.01364E+00 0.00000E+00
 -1      1946 4.34016E+01 6.26745E+00 0.00000E+00
 -1      1947 4.48700E+01 6.26593E+00 0.00000E+00
 -1      1948 3.16042E+01 3.77666E+00 0.00000E+00
 -1      1949 3.30759E+01 3.77206E+00 0.00000E+00
 -1      1950 3.08621E+01 5.02342E+00 0.00000E+00
 -1      1951 2.86594E+01 6.26932E+00 0.00000E+00
 -1      1952 3.01278E+01 6.26749E+00 0.00000E+00
 -1      1953 1.91176E+01 5.00486E+00 0.00000E+00
 -1      1954 2.13169E+01 6.25558E+00 0.00000E+00
 -1      1955 1.98407E+01 6.25260E+00 0.00000E+00
 -1      1956 1.32308E+01 4.99978E+00 0.00000E+00
 -1      1957 7.50000E+01 5.00000E+00 0.00000E+00
 -1      1958 6.61765E+01 2.54713E+00 1.00000E+01
 -1      1959 7.79412E+01 2.54713E+00 1.00000E+01
 -1      1960 8.38235E+01 7.45287E+00 1.00000E+01
 -1      1961 9.26167E+01 2.49818E+00 1.00000E+01
 -1      1962 5.73529E+01 2.53142E+00 1.00000E+01
 -1      1963 7.20588E+01 7.45287E+00 1.00000E+01
 -1      1964 5.14706E+01 2.54713E+00 1.00000E+01
 -1      1965 1.61765E+01 7.45287E+00 1.00000E+01
 -1      1966 2.20588E+01 2.54713E+00 1.00000E+01
 -1      1967 1.02820E+01 2.51769E+00 1.00000E+01
 -1      1968 3.38235E+01 7.45287E+00 1.00000E+01
 -1      1969 4.26337E+01 7.46057E+00 1.00000E+01
 -1      1970 2.79412E+01 7.45287E+00 1.00000E+01
 -1      1971 4.26854E+00 7.42569E+00 1.00000E+01
 -1      1972 6.32353E+01 7.45287E+00 1.00000E+01
 -1      1973 8.67647E+01 2.54713E+00 1.00000E+01
 -1      1974 9.57256E+01 7.42384E+00 1.00000E+01
 -1      1975 4.85294E+01 7.45287E+00 1.00000E+01
 -1      1976 8.97059E+01 7.45287E+00 1.00000E+01
 -1      1977 5.44118E+01 7.45287E+00 1.00000E+01
 -1      1978 3.67647E+01 2.54713E+00 1.00000E+01
 -1      1979 4.55787E+01 2.50775E+00 1.00000E+01
 -1      1980 3.08824E+01 2.54713E+00 1.00000E+01
 -1      1981 2.07239E+00 3.81746E+00 1.00000E+01
 -1      1982 9.79237E+01 3.82131E+00 1.00000E+01
 -1      1983 7.79412E+01 7.45287E+00 1.00000E+01
 -1      1984 7.20588E+01 2.54713E+00 1.00000E+01
 -1      1985 2.20588E+01 7.45287E+00 1.00000E+01
 -1      1986 1.61765E+01 2.54713E+00 1.00000E+01
 -1      1987 1.02756E+01 7.48718E+00 1.00000E+01
 -1      1988 7.31158E+00 7.47675E+00 1.00000E+01
 -1      1989 6.00669E+00 4.96818E+00 1.00000E+01
 -1      1990 9.26593E+01 7.46678E+00 1.00000E+01
 -1      1991 6.32353E+01 2.54713E+00 1.00000E+01
 -1      1992 6.02941E+01 2.52880E+00 1.00000E+01
 -1      1993 5.88235E+01 5.00974E+00 1.00000E+01
 -1      1994 8.08824E+01 2.54713E+00 1.00000E+01
 -1      1995 4.85286E+01 2.52775E+00 1.00000E+01
 -1      1996 6.91176E+01 7.45287E+00 1.00000E+01
 -1      1997 8.67647E+01 7.45287E+00 1.00000E+01
 -1      1998 8.08824E+01 7.45287E+00 1.00000E+01
 -1      1999 3.38235E+01 2.54713E+00 1.00000E+01
 -1      2000 3.67647E+01 7.45287E+00 1.00000E+01
 -1      2001 3.97037E+01 7.46986E+00 1.00000E+01
 -1      2002 4.11472E+01 4.97270E+00 1.00000E+01
 -1      2003 2.50000E+01 2.54713E+00 1.00000E+01
 -1      2004 2.79412E+01 2.54713E+00 1.00000E+01
 -1      2005 8.97059E+01 2.54713E+00 1.00000E+01
 -1      2006 4.55727E+01 7.47757E+00 1.00000E+01
 -1      2007 2.50000E+01 7.45287E+00 1.00000E+01
 -1      2008 5.14706E+01 7.45287E+00 1.00000E+01
 -1      2009 1.91176E+01 2.54713E+00 1.00000E+01
 -1      2010 1.32337E+01 7.47182E+00 1.00000E+01
 -1      2011 1.32343E+01 2.52860E+00 1.00000E+01
 -1      2012 1.91176E+01 7.45287E+00 1.00000E+01
 -1      2013 7.50000E+01 2.54713E+00 1.00000E+01
 -1      2014 3.08824E+01 7.45287E+00 1.00000E+01
 -1      2015 6.91176E+01 2.54713E+00 1.00000E+01
 -1      2016 5.44118E+01 2.53827E+00 1.00000E+01
 -1      2017 8.38235E+01 2.54713E+00 1.00000E+01
 -1      2018 7.50000E+01 7.45287E+00 1.00000E+01
 -1      2019 6.61765E+01 7.45287E+00 1.00000E+01
 -1      2020 8.80603E+00 4.99155E+00 1.00000E+01
 -1      2021 7.35907E+00 2.48863E+00 1.00000E+01
 -1      2022 2.16506E+00 6.25000E+00 1.00000E+01
 -1      2023 5.72728E+01 7.49911E+00 1.00000E+01
 -1      2024 6.03742E+01 7.49911E+00 1.00000E+01
 -1      2025 4.41064E+01 4.97857E+00 1.00000E+01
 -1      2026 3.97010E+01 2.49545E+00 1.00000E+01
 -1      2027 9.39618E+01 4.97179E+00 1.00000E+01
 -1      2028 9.11697E+01 4.99771E+00 1.00000E+01
 -1      2029 7.64706E+01 5.00000E+00 1.00000E+01
 -1      2030 7.35294E+01 5.00000E+00 1.00000E+01
 -1      2031 7.05882E+01 5.00000E+00 1.00000E+01
 -1      2032 8.82353E+01 5.00000E+00 1.00000E+01
 -1      2033 8.23529E+01 5.00000E+00 1.00000E+01
 -1      2034 5.29412E+01 5.00000E+00 1.00000E+01
 -1      2035 6.47059E+01 5.00000E+00 1.00000E+01
 -1      2036 4.70526E+01 4.99075E+00 1.00000E+01
 -1      2037 2.05882E+01 5.00000E+00 1.00000E+01
 -1      2038 1.76471E+01 5.00000E+00 1.00000E+01
 -1      2039 1.47054E+01 5.00007E+00 1.00000E+01
 -1      2040 1.17562E+01 4.99949E+00 1.00000E+01
 -1      2041 7.94118E+01 5.00000E+00 1.00000E+01
 -1      2042 2.35294E+01 5.00000E+00 1.00000E+01
 -1      2043 6.76471E+01 5.00000E+00 1.00000E+01
 -1      2044 3.23529E+01 5.00000E+00 1.00000E+01
 -1      2045 2.94118E+01 5.00000E+00 1.00000E+01
 -1      2046 2.64706E+01 5.00000E+00 1.00000E+01
 -1      2047 8.52941E+01 5.00000E+00 1.00000E+01
 -1      2048 3.52941E+01 5.00000E+00 1.00000E+01
 -1      2049 5.00000E+01 5.00000E+00 1.00000E+01
 -1      2050 5.58824E+01 4.99998E+00 1.00000E+01
 -1      2051 6.17647E+01 4.99998E+00 1.00000E+01
 -1      2052 4.26379E+01 2.49241E+00 1.00000E+01
 -1      2053 3.82353E+01 5.00002E+00 1.00000E+01
 -1      2054 9.78349E+01 6.25000E+00 1.00000E+01
 -1      2055 4.27989E+00 2.57297E+00 1.00000E+01
 -1      2056 9.57116E+01 2.57540E+00 1.00000E+01
 -1      2057 3.75851E+00 5.00686E+00 1.00000E+01
 -1      2058 1.87496E+00 8.23514E+00 1.00000E+01
 -1      2059 1.85869E+00 1.77809E+00 1.00000E+01
 -1      2060 9.81239E+01 8.23477E+00 1.00000E+01
 -1      2061 9.81388E+01 1.77934E+00 1.00000E+01
 -1      2062 9.62315E+01 5.00847E+00 1.00000E+01
 -1      2063 9.29345E-01 8.89044E-01 1.00000E+01
 -1      2064 9.29345E-01 2.13904E+00 1.00000E+01
 -1      2065 2.39993E+00 8.89044E-01 1.00000E+01
 -1      2066 9.37478E-01 7.86757E+00 1.00000E+01
 -1      2067 9.37478E-01 9.11757E+00 1.00000E+01
 -1      2068 2.40807E+00 9.11757E+00 1.00000E+01
 -1      2069 9.90694E+01 2.13967E+00 1.00000E+01
 -1      2070 9.90694E+01 8.89672E-01 1.00000E+01
 -1      2071 9.75988E+01 8.89672E-01 1.00000E+01
 -1      2072 9.90619E+01 9.11738E+00 1.00000E+01
 -1      2073 9.90619E+01 7.86738E+00 1.00000E+01
 -1      2074 9.75914E+01 9.11738E+00 1.00000E+01
 -1      2075 1.03619E+00 3.15873E+00 1.00000E+01
 -1      2076 1.03619E+00 4.40873E+00 1.00000E+01
 -1      2077 1.96554E+00 2.79778E+00 1.00000E+01
 -1      2078 1.08253E+00 5.62500E+00 1.00000E+01
 -1      2079 1.08253E+00 6.87500E+00 1.00000E+01
 -1      2080 2.11873E+00 5.03373E+00 1.00000E+01
 -1      2081 2.02001E+00 7.24257E+00 1.00000E+01
 -1      2082 9.89619E+01 4.41066E+00 1.00000E+01
 -1      2083 9.89619E+01 3.16066E+00 1.00000E+01
 -1      2084 9.80313E+01 2.80033E+00 1.00000E+01
 -1      2085 9.89175E+01 6.87500E+00 1.00000E+01
 -1      2086 9.89175E+01 5.62500E+00 1.00000E+01
 -1      2087 9.78793E+01 5.03566E+00 1.00000E+01
 -1      2088 9.79794E+01 7.24238E+00 1.00000E+01
 -1      2089 5.08112E+00 1.28649E+00 1.00000E+01
 -1      2090 3.61053E+00 1.28649E+00 1.00000E+01
 -1      2091 3.06929E+00 2.17553E+00 1.00000E+01
 -1      2092 8.09130E+00 1.24431E+00 1.00000E+01
 -1      2093 6.62071E+00 1.24431E+00 1.00000E+01
 -1      2094 5.81948E+00 2.53080E+00 1.00000E+01
 -1      2095 1.10234E+01 1.25885E+00 1.00000E+01
 -1      2096 9.55278E+00 1.25885E+00 1.00000E+01
 -1      2097 8.82055E+00 2.50316E+00 1.00000E+01
 -1      2098 1.39701E+01 1.26430E+00 1.00000E+01
 -1      2099 1.24995E+01 1.26430E+00 1.00000E+01
 -1      2100 1.17581E+01 2.52315E+00 1.00000E+01
 -1      2101 1.69118E+01 1.27357E+00 1.00000E+01
 -1      2102 1.54412E+01 1.27357E+00 1.00000E+01
 -1      2103 1.47054E+01 2.53787E+00 1.00000E+01
 -1      2104 1.98529E+01 1.27357E+00 1.00000E+01
 -1      2105 1.83824E+01 1.27357E+00 1.00000E+01
 -1      2106 1.76471E+01 2.54713E+00 1.00000E+01
 -1      2107 2.27941E+01 1.27357E+00 1.00000E+01
 -1      2108 2.13235E+01 1.27357E+00 1.00000E+01
 -1      2109 2.05882E+01 2.54713E+00 1.00000E+01
 -1      2110 2.57353E+01 1.27357E+00 1.00000E+01
 -1      2111 2.42647E+01 1.27357E+00 1.00000E+01
 -1      2112 2.35294E+01 2.54713E+00 1.00000E+01
 -1      2113 2.86765E+01 1.27357E+00 1.00000E+01
 -1      2114 2.72059E+01 1.27357E+00 1.00000E+01
 -1      2115 2.64706E+01 2.54713E+00 1.00000E+01
 -1      2116 3.16176E+01 1.27357E+00 1.00000E+01
 -1      2117 3.01471E+01 1.27357E+00 1.00000E+01
 -1      2118 2.94118E+01 2.54713E+00 1.00000E+01
 -1      2119 3.45588E+01 1.27357E+00 1.00000E+01
 -1      2120 3.30882E+01 1.27357E+00 1.00000E+01
 -1      2121 3.23529E+01 2.54713E+00 1.00000E+01
 -1      2122 3.75000E+01 1.27357E+00 1.00000E+01
 -1      2123 3.60294E+01 1.27357E+00 1.00000E+01
 -1      2124 3.52941E+01 2.54713E+00 1.00000E+01
 -1      2125 4.04387E+01 1.24772E+00 1.00000E+01
 -1      2126 3.89681E+01 1.24772E+00 1.00000E+01
 -1      2127 3.82329E+01 2.52129E+00 1.00000E+01
 -1      2128 4.33778E+01 1.24621E+00 1.00000E+01
 -1      2129 4.19072E+01 1.24621E+00 1.00000E+01
 -1      2130 4.11694E+01 2.49393E+00 1.00000E+01
 -1      2131 4.63188E+01 1.25387E+00 1.00000E+01
 -1      2132 4.48482E+01 1.25387E+00 1.00000E+01
 -1      2133 4.41083E+01 2.50008E+00 1.00000E+01
 -1      2134 4.92643E+01 1.26388E+00 1.00000E+01
 -1      2135 4.77937E+01 1.26388E+00 1.00000E+01
 -1      2136 4.70536E+01 2.51775E+00 1.00000E+01
 -1      2137 5.22059E+01 1.27357E+00 1.00000E+01
 -1      2138 5.07353E+01 1.27357E+00 1.00000E+01
 -1      2139 4.99996E+01 2.53744E+00 1.00000E+01
 -1      2140 5.51471E+01 1.26914E+00 1.00000E+01
 -1      2141 5.36765E+01 1.26914E+00 1.00000E+01
 -1      2142 5.29412E+01 2.54270E+00 1.00000E+01
 -1      2143 5.80882E+01 1.26571E+00 1.00000E+01
 -1      2144 5.66176E+01 1.26571E+00 1.00000E+01
 -1      2145 5.58824E+01 2.53485E+00 1.00000E+01
 -1      2146 6.10294E+01 1.26440E+00 1.00000E+01
 -1      2147 5.95588E+01 1.26440E+00 1.00000E+01
 -1      2148 5.88235E+01 2.53011E+00 1.00000E+01
 -1      2149 6.39706E+01 1.27357E+00 1.00000E+01
 -1      2150 6.25000E+01 1.27357E+00 1.00000E+01
 -1      2151 6.17647E+01 2.53797E+00 1.00000E+01
 -1      2152 6.69118E+01 1.27357E+00 1.00000E+01
 -1      2153 6.54412E+01 1.27357E+00 1.00000E+01
 -1      2154 6.47059E+01 2.54713E+00 1.00000E+01
 -1      2155 6.98529E+01 1.27357E+00 1.00000E+01
 -1      2156 6.83824E+01 1.27357E+00 1.00000E+01
 -1      2157 6.76471E+01 2.54713E+00 1.00000E+01
 -1      2158 7.27941E+01 1.27357E+00 1.00000E+01
 -1      2159 7.13235E+01 1.27357E+00 1.00000E+01
 -1      2160 7.05882E+01 2.54713E+00 1.00000E+01
 -1      2161 7.57353E+01 1.27357E+00 1.00000E+01
 -1      2162 7.42647E+01 1.27357E+00 1.00000E+01
 -1      2163 7.35294E+01 2.54713E+00 1.00000E+01
 -1      2164 7.86765E+01 1.27357E+00 1.00000E+01
 -1      2165 7.72059E+01 1.27357E+00 1.00000E+01
 -1      2166 7.64706E+01 2.54713E+00 1.00000E+01
 -1      2167 8.16176E+01 1.27357E+00 1.00000E+01
 -1      2168 8.01471E+01 1.27357E+00 1.00000E+01
 -1      2169 7.94118E+01 2.54713E+00 1.00000E+01
 -1      2170 8.45588E+01 1.27357E+00 1.00000E+01
 -1      2171 8.30882E+01 1.27357E+00 1.00000E+01
 -1      2172 8.23529E+01 2.54713E+00 1.00000E+01
 -1      2173 8.75000E+01 1.27357E+00 1.00000E+01
 -1      2174 8.60294E+01 1.27357E+00 1.00000E+01
 -1      2175 8.52941E+01 2.54713E+00 1.00000E+01
 -1      2176 9.04412E+01 1.27357E+00 1.00000E+01
 -1      2177 8.89706E+01 1.27357E+00 1.00000E+01
 -1      2178 8.82353E+01 2.54713E+00 1.00000E+01
 -1      2179 9.33672E+01 1.24909E+00 1.00000E+01
 -1      2180 9.18966E+01 1.24909E+00 1.00000E+01
 -1      2181 9.11613E+01 2.52266E+00 1.00000E+01
 -1      2182 9.63852E+01 1.28770E+00 1.00000E+01
 -1      2183 9.49146E+01 1.28770E+00 1.00000E+01
 -1      2184 9.41641E+01 2.53679E+00 1.00000E+01
 -1      2185 9.69252E+01 2.17737E+00 1.00000E+01
 -1      2186 3.60486E+00 8.71284E+00 1.00000E+01
 -1      2187 5.07545E+00 8.71284E+00 1.00000E+01
 -1      2188 3.07175E+00 7.83041E+00 1.00000E+01
 -1      2189 6.59697E+00 8.73837E+00 1.00000E+01
 -1      2190 8.06756E+00 8.73837E+00 1.00000E+01
 -1      2191 5.79006E+00 7.45122E+00 1.00000E+01
 -1      2192 9.54956E+00 8.74359E+00 1.00000E+01
 -1      2193 1.10201E+01 8.74359E+00 1.00000E+01
 -1      2194 8.79358E+00 7.48196E+00 1.00000E+01
 -1      2195 1.24992E+01 8.73591E+00 1.00000E+01
 -1      2196 1.39698E+01 8.73591E+00 1.00000E+01
 -1      2197 1.17547E+01 7.47950E+00 1.00000E+01
 -1      2198 1.54412E+01 8.72643E+00 1.00000E+01
 -1      2199 1.69118E+01 8.72643E+00 1.00000E+01
 -1      2200 1.47051E+01 7.46234E+00 1.00000E+01
 -1      2201 1.83824E+01 8.72643E+00 1.00000E+01
 -1      2202 1.98529E+01 8.72643E+00 1.00000E+01
 -1      2203 1.76471E+01 7.45287E+00 1.00000E+01
 -1      2204 2.13235E+01 8.72643E+00 1.00000E+01
 -1      2205 2.27941E+01 8.72643E+00 1.00000E+01
 -1      2206 2.05882E+01 7.45287E+00 1.00000E+01
 -1      2207 2.42647E+01 8.72643E+00 1.00000E+01
 -1      2208 2.57353E+01 8.72643E+00 1.00000E+01
 -1      2209 2.35294E+01 7.45287E+00 1.00000E+01
 -1      2210 2.72059E+01 8.72643E+00 1.00000E+01
 -1      2211 2.86765E+01 8.72643E+00 1.00000E+01
 -1      2212 2.64706E+01 7.45287E+00 1.00000E+01
 -1      2213 3.01471E+01 8.72643E+00 1.00000E+01
 -1      2214 3.16176E+01 8.72643E+00 1.00000E+01
 -1      2215 2.94118E+01 7.45287E+00 1.00000E+01
 -1      2216 3.30882E+01 8.72643E+00 1.00000E+01
 -1      2217 3.45588E+01 8.72643E+00 1.00000E+01
 -1      2218 3.23529E+01 7.45287E+00 1.00000E+01
 -1      2219 3.60294E+01 8.72643E+00 1.00000E+01
 -1      2220 3.75000E+01 8.72643E+00 1.00000E+01
 -1      2221 3.52941E+01 7.45287E+00 1.00000E+01
 -1      2222 3.89695E+01 8.73493E+00 1.00000E+01
 -1      2223 4.04401E+01 8.73493E+00 1.00000E+01
 -1      2224 3.82342E+01 7.46137E+00 1.00000E+01
 -1      2225 4.19051E+01 8.73029E+00 1.00000E+01
 -1      2226 4.33757E+01 8.73029E+00 1.00000E+01
 -1      2227 4.11687E+01 7.46522E+00 1.00000E+01
 -1      2228 4.48452E+01 8.73878E+00 1.00000E+01
 -1      2229 4.63157E+01 8.73878E+00 1.00000E+01
 -1      2230 4.41032E+01 7.46907E+00 1.00000E+01
 -1      2231 4.77941E+01 8.72643E+00 1.00000E+01
 -1      2232 4.92647E+01 8.72643E+00 1.00000E+01
 -1      2233 4.70510E+01 7.46522E+00 1.00000E+01
 -1      2234 5.07353E+01 8.72643E+00 1.00000E+01
 -1      2235 5.22059E+01 8.72643E+00 1.00000E+01
 -1      2236 5.00000E+01 7.45287E+00 1.00000E+01
 -1      2237 5.36765E+01 8.72643E+00 1.00000E+01
 -1      2238 5.51471E+01 8.72643E+00 1.00000E+01
 -1      2239 5.29412E+01 7.45287E+00 1.00000E+01
 -1      2240 5.65776E+01 8.74956E+00 1.00000E+01
 -1      2241 5.80482E+01 8.74956E+00 1.00000E+01
 -1      2242 5.58423E+01 7.47599E+00 1.00000E+01
 -1      2243 5.95989E+01 8.74956E+00 1.00000E+01
 -1      2244 6.10695E+01 8.74956E+00 1.00000E+01
 -1      2245 5.88235E+01 7.49911E+00 1.00000E+01
 -1      2246 6.25000E+01 8.72643E+00 1.00000E+01
 -1      2247 6.39706E+01 8.72643E+00 1.00000E+01
 -1      2248 6.18048E+01 7.47599E+00 1.00000E+01
 -1      2249 6.54412E+01 8.72643E+00 1.00000E+01
 -1      2250 6.69118E+01 8.72643E+00 1.00000E+01
 -1      2251 6.47059E+01 7.45287E+00 1.00000E+01
 -1      2252 6.83824E+01 8.72643E+00 1.00000E+01
 -1      2253 6.98529E+01 8.72643E+00 1.00000E+01
 -1      2254 6.76471E+01 7.45287E+00 1.00000E+01
 -1      2255 7.13235E+01 8.72643E+00 1.00000E+01
 -1      2256 7.27941E+01 8.72643E+00 1.00000E+01
 -1      2257 7.05882E+01 7.45287E+00 1.00000E+01
 -1      2258 7.42647E+01 8.72643E+00 1.00000E+01
 -1      2259 7.57353E+01 8.72643E+00 1.00000E+01
 -1      2260 7.35294E+01 7.45287E+00 1.00000E+01
 -1      2261 7.72059E+01 8.72643E+00 1.00000E+01
 -1      2262 7.86765E+01 8.72643E+00 1.00000E+01
 -1      2263 7.64706E+01 7.45287E+00 1.00000E+01
 -1      2264 8.01471E+01 8.72643E+00 1.00000E+01
 -1      2265 8.16176E+01 8.72643E+00 1.00000E+01
 -1      2266 7.94118E+01 7.45287E+00 1.00000E+01
 -1      2267 8.30882E+01 8.72643E+00 1.00000E+01
 -1      2268 8.45588E+01 8.72643E+00 1.00000E+01
 -1      2269 8.23529E+01 7.45287E+00 1.00000E+01
 -1      2270 8.60294E+01 8.72643E+00 1.00000E+01
 -1      2271 8.75000E+01 8.72643E+00 1.00000E+01
 -1      2272 8.52941E+01 7.45287E+00 1.00000E+01
 -1      2273 8.89706E+01 8.72643E+00 1.00000E+01
 -1      2274 9.04412E+01 8.72643E+00 1.00000E+01
 -1      2275 8.82353E+01 7.45287E+00 1.00000E+01
 -1      2276 9.19179E+01 8.73339E+00 1.00000E+01
 -1      2277 9.33885E+01 8.73339E+00 1.00000E+01
 -1      2278 9.11826E+01 7.45982E+00 1.00000E+01
 -1      2279 9.49216E+01 8.71192E+00 1.00000E+01
 -1      2280 9.63922E+01 8.71192E+00 1.00000E+01
 -1      2281 9.41925E+01 7.44531E+00 1.00000E+01
 -1      2282 9.69248E+01 7.82931E+00 1.00000E+01
 -1      2283 6.54412E+01 3.77357E+00 1.00000E+01
 -1      2284 6.39706E+01 3.77357E+00 1.00000E+01
 -1      2285 6.83824E+01 3.77357E+00 1.00000E+01
 -1      2286 6.69118E+01 3.77357E+00 1.00000E+01
 -1      2287 6.61765E+01 5.00000E+00 1.00000E+01
 -1      2288 8.01471E+01 3.77357E+00 1.00000E+01
 -1      2289 7.86765E+01 3.77357E+00 1.00000E+01
 -1      2290 7.72059E+01 3.77357E+00 1.00000E+01
 -1      2291 7.57353E+01 3.77357E+00 1.00000E+01
 -1      2292 7.79412E+01 5.00000E+00 1.00000E+01
 -1      2293 8.45588E+01 6.22643E+00 1.00000E+01
 -1      2294 8.60294E+01 6.22643E+00 1.00000E+01
 -1      2295 8.16176E+01 6.22643E+00 1.00000E+01
 -1      2296 8.30882E+01 6.22643E+00 1.00000E+01
 -1      2297 8.38235E+01 5.00000E+00 1.00000E+01
 -1      2298 9.18932E+01 3.74794E+00 1.00000E+01
 -1      2299 9.04378E+01 3.77242E+00 1.00000E+01
 -1      2300 9.25657E+01 4.98475E+00 1.00000E+01
 -1      2301 9.32892E+01 3.73498E+00 1.00000E+01
 -1      2302 9.48367E+01 3.77360E+00 1.00000E+01
 -1      2303 5.95588E+01 3.76927E+00 1.00000E+01
 -1      2304 5.80882E+01 3.77058E+00 1.00000E+01
 -1      2305 5.73529E+01 5.00486E+00 1.00000E+01
 -1      2306 5.66176E+01 3.76570E+00 1.00000E+01
 -1      2307 5.51471E+01 3.76913E+00 1.00000E+01
 -1      2308 6.98529E+01 6.22643E+00 1.00000E+01
 -1      2309 7.13235E+01 6.22643E+00 1.00000E+01
 -1      2310 7.27941E+01 6.22643E+00 1.00000E+01
 -1      2311 7.42647E+01 6.22643E+00 1.00000E+01
 -1      2312 7.20588E+01 5.00000E+00 1.00000E+01
 -1      2313 5.07353E+01 3.77357E+00 1.00000E+01
 -1      2314 4.92643E+01 3.76388E+00 1.00000E+01
 -1      2315 5.36765E+01 3.76914E+00 1.00000E+01
 -1      2316 5.22059E+01 3.77357E+00 1.00000E+01
 -1      2317 5.14706E+01 5.00000E+00 1.00000E+01
 -1      2318 1.39696E+01 6.23594E+00 1.00000E+01
 -1      2319 1.54410E+01 6.22647E+00 1.00000E+01
 -1      2320 1.69118E+01 6.22643E+00 1.00000E+01
 -1      2321 1.83824E+01 6.22643E+00 1.00000E+01
 -1      2322 1.61763E+01 5.00003E+00 1.00000E+01
 -1      2323 2.42647E+01 3.77357E+00 1.00000E+01
 -1      2324 2.27941E+01 3.77357E+00 1.00000E+01
 -1      2325 2.13235E+01 3.77357E+00 1.00000E+01
 -1      2326 1.98529E+01 3.77357E+00 1.00000E+01
 -1      2327 2.20588E+01 5.00000E+00 1.00000E+01
 -1      2328 1.24952E+01 3.76404E+00 1.00000E+01
 -1      2329 1.10191E+01 3.75859E+00 1.00000E+01
 -1      2330 8.08255E+00 3.74009E+00 1.00000E+01
 -1      2331 9.54403E+00 3.75462E+00 1.00000E+01
 -1      2332 1.02811E+01 4.99552E+00 1.00000E+01
 -1      2333 3.45588E+01 6.22643E+00 1.00000E+01
 -1      2334 3.60294E+01 6.22643E+00 1.00000E+01
 -1      2335 3.16176E+01 6.22643E+00 1.00000E+01
 -1      2336 3.30882E+01 6.22643E+00 1.00000E+01
 -1      2337 3.38235E+01 5.00000E+00 1.00000E+01
 -1      2338 4.04254E+01 6.22128E+00 1.00000E+01
 -1      2339 4.18904E+01 6.21663E+00 1.00000E+01
 -1      2340 4.26268E+01 4.97563E+00 1.00000E+01
 -1      2341 4.33700E+01 6.21957E+00 1.00000E+01
 -1      2342 4.48395E+01 6.22807E+00 1.00000E+01
 -1      2343 2.57353E+01 6.22643E+00 1.00000E+01
 -1      2344 2.72059E+01 6.22643E+00 1.00000E+01
 -1      2345 2.86765E+01 6.22643E+00 1.00000E+01
 -1      2346 3.01471E+01 6.22643E+00 1.00000E+01
 -1      2347 2.79412E+01 5.00000E+00 1.00000E+01
 -1      2348 5.13762E+00 6.19693E+00 1.00000E+01
 -1      2349 6.65914E+00 6.22246E+00 1.00000E+01
 -1      2350 4.01353E+00 6.21627E+00 1.00000E+01
 -1      2351 4.88260E+00 4.98752E+00 1.00000E+01
 -1      2352 2.96179E+00 5.62843E+00 1.00000E+01
 -1      2353 3.21680E+00 6.83784E+00 1.00000E+01
 -1      2354 6.39706E+01 6.22643E+00 1.00000E+01
 -1      2355 6.54412E+01 6.22643E+00 1.00000E+01
 -1      2356 6.10695E+01 6.24955E+00 1.00000E+01
 -1      2357 6.25000E+01 6.22642E+00 1.00000E+01
 -1      2358 6.32353E+01 4.99999E+00 1.00000E+01
 -1      2359 8.89706E+01 3.77357E+00 1.00000E+01
 -1      2360 8.75000E+01 3.77357E+00 1.00000E+01
 -1      2361 8.60294E+01 3.77357E+00 1.00000E+01
 -1      2362 8.45588E+01 3.77357E+00 1.00000E+01
 -1      2363 8.67647E+01 5.00000E+00 1.00000E+01
 -1      2364 9.33106E+01 6.21928E+00 1.00000E+01
 -1      2365 9.48437E+01 6.19782E+00 1.00000E+01
 -1      2366 9.50966E+01 4.99013E+00 1.00000E+01
 -1      2367 9.59786E+01 6.21616E+00 1.00000E+01
 -1      2368 9.67803E+01 6.83692E+00 1.00000E+01
 -1      2369 9.70332E+01 5.62924E+00 1.00000E+01
 -1      2370 4.63126E+01 6.23416E+00 1.00000E+01
 -1      2371 4.77910E+01 6.22181E+00 1.00000E+01
 -1      2372 4.92647E+01 6.22643E+00 1.00000E+01
 -1      2373 5.07353E+01 6.22643E+00 1.00000E+01
 -1      2374 4.85263E+01 4.99538E+00 1.00000E+01
 -1      2375 9.04378E+01 6.22529E+00 1.00000E+01
 -1      2376 9.19145E+01 6.23224E+00 1.00000E+01
 -1      2377 8.75000E+01 6.22643E+00 1.00000E+01
 -1      2378 8.89706E+01 6.22643E+00 1.00000E+01
 -1      2379 8.97025E+01 4.99885E+00 1.00000E+01
 -1      2380 5.22059E+01 6.22643E+00 1.00000E+01
 -1      2381 5.36765E+01 6.22643E+00 1.00000E+01
 -1      2382 5.51471E+01 6.22642E+00 1.00000E+01
 -1      2383 5.65776E+01 6.24955E+00 1.00000E+01
 -1      2384 5.44118E+01 4.99999E+00 1.00000E+01
 -1      2385 3.60294E+01 3.77357E+00 1.00000E+01
 -1      2386 3.45588E+01 3.77357E+00 1.00000E+01
 -1      2387 3.89681E+01 3.74773E+00 1.00000E+01
 -1      2388 3.75000E+01 3.77358E+00 1.00000E+01
 -1      2389 3.67647E+01 5.00001E+00 1.00000E+01
 -1      2390 4.77906E+01 3.75925E+00 1.00000E+01
 -1      2391 4.63157E+01 3.74925E+00 1.00000E+01
 -1      2392 4.55795E+01 4.98466E+00 1.00000E+01
 -1      2393 4.48425E+01 3.74316E+00 1.00000E+01
 -1      2394 4.33721E+01 3.73549E+00 1.00000E+01
 -1      2395 3.30882E+01 3.77357E+00 1.00000E+01
 -1      2396 3.16176E+01 3.77357E+00 1.00000E+01
 -1      2397 3.01471E+01 3.77357E+00 1.00000E+01
 -1      2398 2.86765E+01 3.77357E+00 1.00000E+01
 -1      2399 3.08824E+01 5.00000E+00 1.00000E+01
 -1      2400 2.91545E+00 4.41216E+00 1.00000E+01
 -1      2401 4.01920E+00 3.78992E+00 1.00000E+01
 -1      2402 3.17614E+00 3.19522E+00 1.00000E+01
 -1      2403 9.70776E+01 4.41489E+00 1.00000E+01
 -1      2404 9.68176E+01 3.19836E+00 1.00000E+01
 -1      2405 9.59715E+01 3.79194E+00 1.00000E+01
 -1      2406 7.86765E+01 6.22643E+00 1.00000E+01
 -1      2407 8.01471E+01 6.22643E+00 1.00000E+01
 -1      2408 7.57353E+01 6.22643E+00 1.00000E+01
 -1      2409 7.72059E+01 6.22643E+00 1.00000E+01
 -1      2410 7.42647E+01 3.77357E+00 1.00000E+01
 -1      2411 7.27941E+01 3.77357E+00 1.00000E+01
 -1      2412 7.13235E+01 3.77357E+00 1.00000E+01
 -1      2413 6.98529E+01 3.77357E+00 1.00000E+01
 -1      2414 2.27941E+01 6.22643E+00 1.00000E+01
 -1      2415 2.42647E+01 6.22643E+00 1.00000E+01
 -1      2416 1.98529E+01 6.22643E+00 1.00000E+01
 -1      2417 2.13235E+01 6.22643E+00 1.00000E+01
 -1      2418 1.83824E+01 3.77357E+00 1.00000E+01
 -1      2419 1.69118E+01 3.77357E+00 1.00000E+01
 -1      2420 1.54410E+01 3.77360E+00 1.00000E+01
 -1      2421 1.39699E+01 3.76433E+00 1.00000E+01
 -1      2422 8.05881E+00 6.23415E+00 1.00000E+01
 -1      2423 9.54081E+00 6.23937E+00 1.00000E+01
 -1      2424 1.10159E+01 6.24333E+00 1.00000E+01
 -1      2425 1.24949E+01 6.23565E+00 1.00000E+01
 -1      2426 7.40636E+00 4.97986E+00 1.00000E+01
 -1      2427 6.68288E+00 3.72840E+00 1.00000E+01
 -1      2428 5.14329E+00 3.77057E+00 1.00000E+01
 -1      2429 6.25000E+01 3.77356E+00 1.00000E+01
 -1      2430 6.10294E+01 3.76439E+00 1.00000E+01
 -1      2431 6.02941E+01 5.00486E+00 1.00000E+01
 -1      2432 5.95989E+01 6.25442E+00 1.00000E+01
 -1      2433 5.80482E+01 6.25442E+00 1.00000E+01
 -1      2434 8.30882E+01 3.77357E+00 1.00000E+01
 -1      2435 8.16176E+01 3.77357E+00 1.00000E+01
 -1      2436 8.08824E+01 5.00000E+00 1.00000E+01
 -1      2437 6.69118E+01 6.22643E+00 1.00000E+01
 -1      2438 6.83824E+01 6.22643E+00 1.00000E+01
 -1      2439 6.91176E+01 5.00000E+00 1.00000E+01
 -1      2440 3.75000E+01 6.22644E+00 1.00000E+01
 -1      2441 3.89695E+01 6.23494E+00 1.00000E+01
 -1      2442 3.96912E+01 4.98636E+00 1.00000E+01
 -1      2443 4.18925E+01 3.73255E+00 1.00000E+01
 -1      2444 4.04241E+01 3.73407E+00 1.00000E+01
 -1      2445 2.72059E+01 3.77357E+00 1.00000E+01
 -1      2446 2.57353E+01 3.77357E+00 1.00000E+01
 -1      2447 2.50000E+01 5.00000E+00 1.00000E+01
 -1      2448 1.91176E+01 5.00000E+00 1.00000E+01
 -1      2449 1.32308E+01 4.99978E+00 1.00000E+01
 -1      2450 7.50000E+01 5.00000E+00 1.00000E+01
 -1      2451 4.79105E+00 5.18244E+00 5.18426E+00
 -1      2452 9.52101E+01 5.18358E+00 5.18296E+00
 -1      2453 8.97025E+01 5.00000E+00 5.00000E+00
 -1      2454 1.02811E+01 5.00000E+00 4.99492E+00
 -1      2455 2.50000E+01 4.99974E+00 4.99974E+00
 -1      2456 8.08824E+01 5.00000E+00 5.00000E+00
 -1      2457 7.50000E+01 5.00000E+00 5.00000E+00
 -1      2458 6.91176E+01 5.00000E+00 5.00000E+00
 -1      2459 6.32353E+01 5.00000E+00 5.00000E+00
 -1      2460 5.44118E+01 5.00000E+00 5.00000E+00
 -1      2461 3.67647E+01 5.00000E+00 5.00000E+00
 -1      2462 1.91176E+01 5.00000E+00 5.00000E+00
 -1      2463 4.85294E+01 5.00092E+00 5.00092E+00
 -1      2464 3.08824E+01 4.99837E+00 5.00163E+00
 -1      2465 4.26267E+01 5.00000E+00 5.00000E+00
 -1      2466 5.88235E+01 4.44637E+00 5.55472E+00
 -1      2467 8.52924E+01 4.44487E+00 5.55513E+00
 -1      2468 1.46991E+01 4.45330E+00 5.54761E+00
 -1      2469 9.68586E+01 3.13900E+00 3.10254E+00
 -1      2470 3.09889E+00 3.05820E+00 3.05792E+00
 -1      2471 9.69400E+01 3.03397E+00 6.96603E+00
 -1      2472 3.03047E+00 6.94754E+00 3.07241E+00
 -1      2473 2.79420E+01 6.49258E+00 3.48435E+00
 -1      2474 2.20587E+01 3.50140E+00 3.49547E+00
 -1      2475 7.79412E+01 6.50050E+00 3.49950E+00
 -1      2476 7.79412E+01 3.49950E+00 6.50050E+00
 -1      2477 6.61765E+01 6.50050E+00 6.50050E+00
 -1      2478 7.20588E+01 6.50050E+00 6.50050E+00
 -1      2479 7.20588E+01 3.49950E+00 3.49950E+00
 -1      2480 6.61765E+01 3.49950E+00 3.49950E+00
 -1      2481 2.20590E+01 6.50045E+00 6.50045E+00
 -1      2482 5.14701E+01 3.49969E+00 3.49969E+00
 -1      2483 4.55781E+01 6.49614E+00 3.49318E+00
 -1      2484 3.96957E+01 3.48878E+00 6.51122E+00
 -1      2485 5.14711E+01 6.50068E+00 6.50068E+00
 -1      2486 3.38235E+01 6.50050E+00 6.50050E+00
 -1      2487 2.79403E+01 3.49917E+00 6.50083E+00
 -1      2488 4.55781E+01 3.49839E+00 6.50161E+00
 -1      2489 3.38235E+01 3.50244E+00 3.49351E+00
 -1      2490 3.96957E+01 6.50381E+00 3.48748E+00
 -1      2491 3.06647E+00 3.05896E+00 6.97750E+00
 -1      2492 9.69547E+01 6.93831E+00 3.06169E+00
 -1      2493 8.70238E+01 6.60396E+00 3.39604E+00
 -1      2494 1.64427E+01 6.60911E+00 3.39616E+00
 -1      2495 7.42572E+00 3.47188E+00 3.45014E+00
 -1      2496 9.25646E+01 3.47035E+00 3.45838E+00
 -1      2497 2.97523E+00 7.02730E+00 7.02730E+00
 -1      2498 8.35271E+01 6.61749E+00 3.38251E+00
 -1      2499 1.29396E+01 6.61565E+00 3.38419E+00
 -1      2500 9.70212E+01 7.05844E+00 7.02275E+00
 -1      2501 5.70906E+01 6.60109E+00 3.39001E+00
 -1      2502 6.05649E+01 6.67514E+00 3.53086E+00
 -1      2503 7.63969E+00 6.61680E+00 6.62396E+00
 -1      2504 9.24292E+01 6.91557E+00 4.07827E+00
 -1      2505 9.24302E+01 4.05882E+00 6.91442E+00
 -1      2506 6.09587E+01 3.23888E+00 3.23384E+00
 -1      2507 5.66882E+01 3.23860E+00 3.23429E+00
 -1      2508 8.74276E+01 3.23687E+00 3.23687E+00
 -1      2509 8.74276E+01 6.76313E+00 6.76313E+00
 -1      2510 8.31573E+01 6.76343E+00 6.76343E+00
 -1      2511 8.31573E+01 3.23657E+00 3.23657E+00
 -1      2512 1.68408E+01 3.23402E+00 3.23893E+00
 -1      2513 1.25604E+01 3.23513E+00 3.23387E+00
 -1      2514 3.90069E+01 6.78375E+00 6.77471E+00
 -1      2515 6.54714E+01 3.22125E+00 6.77875E+00
 -1      2516 7.86463E+01 6.77875E+00 6.77875E+00
 -1      2517 7.86463E+01 3.22125E+00 3.22125E+00
 -1      2518 7.27639E+01 3.22125E+00 6.77875E+00
 -1      2519 7.27639E+01 6.77875E+00 3.22125E+00
 -1      2520 6.68816E+01 6.77875E+00 3.22125E+00
 -1      2521 2.27640E+01 3.22122E+00 6.77878E+00
 -1      2522 5.21757E+01 6.77878E+00 3.22122E+00
 -1      2523 2.72359E+01 6.77870E+00 6.77870E+00
 -1      2524 3.45286E+01 3.22125E+00 6.77875E+00
 -1      2525 2.27652E+01 6.78002E+00 3.22231E+00
 -1      2526 5.21757E+01 3.22122E+00 6.77878E+00
 -1      2527 3.90052E+01 3.21892E+00 3.22710E+00
 -1      2528 2.72242E+01 3.21782E+00 3.21363E+00
 -1      2529 3.45305E+01 6.78074E+00 3.22301E+00
 -1      2530 4.62941E+01 3.21570E+00 3.22216E+00
 -1      2531 4.62855E+01 6.78271E+00 6.77650E+00
 -1      2532 5.66925E+01 6.77589E+00 6.73112E+00
 -1      2533 1.68411E+01 6.76192E+00 6.76323E+00
 -1      2534 1.25545E+01 6.76060E+00 6.76810E+00
 -1      2535 7.99536E+00 3.26066E+00 6.77330E+00
 -1      2536 7.99869E+00 6.78216E+00 3.28364E+00
 -1      2537 6.14517E+01 3.04388E+00 6.95976E+00
 -1      2538 5.64178E+01 2.74063E+00 7.17463E+00
 -1      2539 8.79204E+01 3.04263E+00 6.95737E+00
 -1      2540 8.26643E+01 3.04204E+00 6.95796E+00
 -1      2541 6.11189E+01 6.83024E+00 6.81728E+00
 -1      2542 1.20719E+01 3.05759E+00 6.96311E+00
 -1      2543 1.73237E+01 3.05692E+00 6.95822E+00
 -1      2544 9.11363E+01 7.08019E+00 7.08019E+00
 -1      2545 3.15417E+01 7.07624E+00 2.91253E+00
 -1      2546 7.56607E+01 7.08085E+00 7.08085E+00
 -1      2547 6.84570E+01 2.91915E+00 7.08085E+00
 -1      2548 7.56607E+01 2.91915E+00 2.91915E+00
 -1      2549 6.38960E+01 7.08085E+00 2.91915E+00
 -1      2550 1.97769E+01 7.07742E+00 2.91080E+00
 -1      2551 3.02126E+01 2.91852E+00 2.92045E+00
 -1      2552 3.02215E+01 7.08085E+00 7.08085E+00
 -1      2553 3.15440E+01 2.91824E+00 7.08176E+00
 -1      2554 4.32966E+01 7.08491E+00 7.07849E+00
 -1      2555 4.33057E+01 2.91711E+00 2.92404E+00
 -1      2556 4.91891E+01 2.91809E+00 7.08191E+00
 -1      2557 4.91901E+01 7.08085E+00 2.91915E+00
 -1      2558 9.40816E+01 6.74307E+00 7.47119E+00
 -1      2559 6.98227E+01 7.12243E+00 2.87757E+00
 -1      2560 6.92306E+01 2.91915E+00 2.91915E+00
 -1      2561 6.90047E+01 7.08085E+00 7.08085E+00
 -1      2562 4.25309E+01 2.91609E+00 7.08391E+00
 -1      2563 4.26415E+01 6.25379E+00 2.50000E+00
 -1      2564 4.26302E+01 7.50000E+00 3.76971E+00
 -1      2565 4.26450E+01 8.75379E+00 1.26971E+00
 -1      2566 4.11760E+01 7.00570E+00 1.74374E+00
 -1      2567 4.11647E+01 8.25190E+00 3.01345E+00
 -1      2568 4.11612E+01 5.75190E+00 4.24374E+00
 -1      2569 4.41059E+01 8.24807E+00 3.01630E+00
 -1      2570 4.41171E+01 7.00186E+00 1.74659E+00
 -1      2571 4.41024E+01 5.74807E+00 4.24659E+00
 -1      2572 9.65450E+01 1.56950E+00 4.04703E+00
 -1      2573 9.54102E+01 1.56950E+00 4.06537E+00
 -1      2574 9.65858E+01 1.51699E+00 5.97878E+00
 -1      2575 9.54509E+01 1.51699E+00 5.99712E+00
 -1      2576 9.68993E+01 3.08649E+00 5.03428E+00
 -1      2577 9.54102E+01 4.05539E+00 1.55127E+00
 -1      2578 9.65450E+01 4.07373E+00 1.55127E+00
 -1      2579 9.65931E+01 5.97339E+00 1.53084E+00
 -1      2580 9.69066E+01 5.03866E+00 3.08211E+00
 -1      2581 9.54582E+01 5.95505E+00 1.53084E+00
 -1      2582 3.42870E+00 4.03253E+00 1.52896E+00
 -1      2583 3.94497E+00 4.12032E+00 4.12109E+00
 -1      2584 4.27478E+00 5.09465E+00 2.59213E+00
 -1      2585 3.39449E+00 5.97720E+00 1.53620E+00
 -1      2586 3.91076E+00 6.06499E+00 4.12833E+00
 -1      2587 3.06468E+00 5.00287E+00 3.06516E+00
 -1      2588 4.27880E+00 2.59122E+00 5.09797E+00
 -1      2589 3.43272E+00 1.52910E+00 4.03480E+00
 -1      2590 3.41651E+00 1.52948E+00 5.99459E+00
 -1      2591 3.08268E+00 3.05858E+00 5.01771E+00
 -1      2592 3.92876E+00 4.12070E+00 6.08088E+00
 -1      2593 8.08824E+01 8.72643E+00 1.27357E+00
 -1      2594 7.94118E+01 8.25025E+00 3.02332E+00
 -1      2595 7.94118E+01 6.97668E+00 1.74975E+00
 -1      2596 8.22047E+01 7.03518E+00 1.69126E+00
 -1      2597 8.07341E+01 6.55899E+00 3.44101E+00
 -1      2598 8.22047E+01 8.30874E+00 2.96482E+00
 -1      2599 7.94118E+01 5.75025E+00 4.24975E+00
 -1      2600 8.08824E+01 7.50000E+00 3.77357E+00
 -1      2601 8.22047E+01 5.80874E+00 4.19126E+00
 -1      2602 8.08824E+01 6.22643E+00 2.50000E+00
 -1      2603 5.41224E+00 2.59122E+00 5.08202E+00
 -1      2604 4.54995E+00 1.52948E+00 5.97864E+00
 -1      2605 5.39887E+00 5.07531E+00 2.59213E+00
 -1      2606 4.51858E+00 5.95786E+00 1.53620E+00
 -1      2607 8.83648E+01 8.30198E+00 2.97159E+00
 -1      2608 8.83648E+01 7.02841E+00 1.69802E+00
 -1      2609 8.97059E+01 8.72643E+00 1.27357E+00
 -1      2610 9.10675E+01 8.45779E+00 3.31270E+00
 -1      2611 9.10675E+01 7.18422E+00 2.03914E+00
 -1      2612 8.97265E+01 6.75976E+00 3.73716E+00
 -1      2613 8.83631E+01 5.80198E+00 4.19802E+00
 -1      2614 8.97042E+01 6.22643E+00 2.50000E+00
 -1      2615 9.10658E+01 5.95779E+00 4.53914E+00
 -1      2616 2.16761E+01 1.61061E+00 5.88939E+00
 -1      2617 2.09408E+01 4.11061E+00 5.88939E+00
 -1      2618 1.98529E+01 2.50000E+00 5.00000E+00
 -1      2619 1.89560E+01 1.52846E+00 5.97911E+00
 -1      2620 1.82207E+01 4.02846E+00 5.97911E+00
 -1      2621 2.00438E+01 3.13907E+00 6.86850E+00
 -1      2622 2.16761E+01 4.11061E+00 8.38939E+00
 -1      2623 1.98529E+01 5.00000E+00 7.50000E+00
 -1      2624 1.89560E+01 4.02846E+00 8.47911E+00
 -1      2625 2.09408E+01 1.61061E+00 7.11582E+00
 -1      2626 1.82207E+01 1.52846E+00 7.20554E+00
 -1      2627 2.09408E+01 2.88418E+00 8.38939E+00
 -1      2628 1.82207E+01 2.80203E+00 8.47911E+00
 -1      2629 4.56616E+00 1.52910E+00 4.01885E+00
 -1      2630 4.55279E+00 4.01319E+00 1.52896E+00
 -1      2631 8.16176E+01 7.50000E+00 5.00000E+00
 -1      2632 8.01471E+01 7.50000E+00 5.00000E+00
 -1      2633 8.16176E+01 5.00000E+00 2.50000E+00
 -1      2634 8.01471E+01 5.00000E+00 2.50000E+00
 -1      2635 9.04361E+01 4.99885E+00 2.50000E+00
 -1      2636 9.17994E+01 5.95664E+00 2.03914E+00
 -1      2637 8.89689E+01 5.00000E+00 2.50000E+00
 -1      2638 2.50000E+01 6.24972E+00 2.49987E+00
 -1      2639 2.57346E+01 5.00199E+00 2.49987E+00
 -1      2640 2.64710E+01 6.99614E+00 1.74218E+00
 -1      2641 2.72056E+01 5.74841E+00 1.74218E+00
 -1      2642 2.64710E+01 5.74616E+00 4.24204E+00
 -1      2643 2.46171E+01 5.89213E+00 1.61116E+00
 -1      2644 2.38826E+01 7.13986E+00 1.61116E+00
 -1      2645 2.38826E+01 5.88988E+00 4.11102E+00
 -1      2646 1.98529E+01 5.00487E+00 2.50000E+00
 -1      2647 1.91176E+01 3.76440E+00 2.50000E+00
 -1      2648 2.13235E+01 4.25557E+00 1.74773E+00
 -1      2649 2.05882E+01 3.01510E+00 1.74773E+00
 -1      2650 2.05882E+01 4.25070E+00 4.24773E+00
 -1      2651 2.50000E+01 3.76408E+00 2.49987E+00
 -1      2652 2.42638E+01 5.00433E+00 2.49987E+00
 -1      2653 2.35293E+01 3.01491E+00 1.74773E+00
 -1      2654 2.27932E+01 4.25516E+00 1.74773E+00
 -1      2655 2.35293E+01 4.25057E+00 4.24760E+00
 -1      2656 4.33868E+01 5.01365E+00 2.50000E+00
 -1      2657 4.19072E+01 5.01071E+00 2.50000E+00
 -1      2658 2.53536E+01 6.63630E+00 3.35333E+00
 -1      2659 3.82302E+01 5.75190E+00 4.24374E+00
 -1      2660 3.82302E+01 7.00061E+00 1.74374E+00
 -1      2661 3.67647E+01 6.24871E+00 2.50000E+00
 -1      2662 3.56476E+01 5.89037E+00 4.11151E+00
 -1      2663 3.56476E+01 7.13908E+00 1.61151E+00
 -1      2664 3.71131E+01 6.64227E+00 3.35525E+00
 -1      2665 2.53759E+01 4.11337E+00 1.60681E+00
 -1      2666 2.61121E+01 2.87312E+00 1.60681E+00
 -1      2667 2.61121E+01 4.10878E+00 4.10668E+00
 -1      2668 3.75030E+01 5.00672E+00 2.50000E+00
 -1      2669 3.63859E+01 5.89709E+00 1.61151E+00
 -1      2670 5.44118E+01 3.76914E+00 2.50000E+00
 -1      2671 5.36765E+01 5.00000E+00 2.50000E+00
 -1      2672 5.29409E+01 3.01898E+00 1.74984E+00
 -1      2673 5.22056E+01 4.24984E+00 1.74984E+00
 -1      2674 5.29409E+01 4.24984E+00 4.24984E+00
 -1      2675 1.91176E+01 2.50000E+00 3.76916E+00
 -1      2676 2.05881E+01 1.75070E+00 3.01689E+00
 -1      2677 2.13235E+01 1.75070E+00 4.24773E+00
 -1      2678 3.89685E+01 5.75863E+00 1.74374E+00
 -1      2679 2.46415E+01 3.35961E+00 3.35455E+00
 -1      2680 2.42647E+01 7.49987E+00 4.99987E+00
 -1      2681 2.50000E+01 7.49987E+00 6.22630E+00
 -1      2682 2.27942E+01 8.25022E+00 5.75022E+00
 -1      2683 2.35295E+01 8.25022E+00 6.97666E+00
 -1      2684 2.35295E+01 5.75009E+00 5.75009E+00
 -1      2685 2.50000E+01 6.22630E+00 7.49987E+00
 -1      2686 2.42647E+01 4.99987E+00 7.49987E+00
 -1      2687 2.35295E+01 6.97666E+00 8.25022E+00
 -1      2688 2.27942E+01 5.75022E+00 8.25022E+00
 -1      2689 2.57353E+01 7.49987E+00 4.99987E+00
 -1      2690 2.50000E+01 7.49987E+00 3.77343E+00
 -1      2691 2.64710E+01 8.24629E+00 3.01574E+00
 -1      2692 2.72063E+01 8.24629E+00 4.24218E+00
 -1      2693 7.50000E+01 6.22643E+00 2.50000E+00
 -1      2694 7.57353E+01 5.00000E+00 2.50000E+00
 -1      2695 7.72059E+01 5.75025E+00 1.74975E+00
 -1      2696 7.64706E+01 5.75025E+00 4.24975E+00
 -1      2697 7.64706E+01 6.97668E+00 1.74975E+00
 -1      2698 7.50000E+01 3.77357E+00 7.50000E+00
 -1      2699 7.57353E+01 5.00000E+00 7.50000E+00
 -1      2700 7.64706E+01 3.02332E+00 8.25025E+00
 -1      2701 7.72059E+01 4.24975E+00 8.25025E+00
 -1      2702 7.64706E+01 4.24975E+00 5.75025E+00
 -1      2703 7.86765E+01 8.25025E+00 4.24975E+00
 -1      2704 7.57353E+01 7.50000E+00 5.00000E+00
 -1      2705 7.50000E+01 7.50000E+00 3.77357E+00
 -1      2706 7.72059E+01 8.25025E+00 4.24975E+00
 -1      2707 7.64706E+01 8.25025E+00 3.02332E+00
 -1      2708 7.86765E+01 5.75025E+00 1.74975E+00
 -1      2709 7.57353E+01 2.50000E+00 5.00000E+00
 -1      2710 7.50000E+01 2.50000E+00 6.22643E+00
 -1      2711 7.64706E+01 1.74975E+00 6.97668E+00
 -1      2712 7.72059E+01 1.74975E+00 5.75025E+00
 -1      2713 6.32353E+01 2.50000E+00 3.77357E+00
 -1      2714 6.39706E+01 2.50000E+00 5.00000E+00
 -1      2715 6.54412E+01 1.74975E+00 4.24975E+00
 -1      2716 6.47059E+01 4.24975E+00 4.24975E+00
 -1      2717 6.47059E+01 1.74975E+00 3.02332E+00
 -1      2718 6.39706E+01 5.00000E+00 2.50000E+00
 -1      2719 6.32353E+01 3.77357E+00 2.50000E+00
 -1      2720 6.54412E+01 4.24975E+00 1.74975E+00
 -1      2721 6.47059E+01 3.02332E+00 1.74975E+00
 -1      2722 1.91176E+01 6.22643E+00 7.50000E+00
 -1      2723 2.05883E+01 6.97666E+00 8.25022E+00
 -1      2724 2.05883E+01 5.75022E+00 5.75022E+00
 -1      2725 2.13236E+01 5.75022E+00 8.25022E+00
 -1      2726 1.91176E+01 7.50000E+00 6.22643E+00
 -1      2727 1.98529E+01 7.50000E+00 5.00000E+00
 -1      2728 2.05883E+01 8.25022E+00 6.97666E+00
 -1      2729 2.13236E+01 8.25022E+00 5.75022E+00
 -1      2730 2.42647E+01 2.49987E+00 4.99987E+00
 -1      2731 2.50000E+01 2.49987E+00 3.77343E+00
 -1      2732 2.27941E+01 1.75070E+00 4.24773E+00
 -1      2733 2.35293E+01 1.75070E+00 3.02130E+00
 -1      2734 4.48625E+01 5.76172E+00 1.74659E+00
 -1      2735 5.36765E+01 2.50000E+00 5.00000E+00
 -1      2736 5.44118E+01 2.50000E+00 3.77357E+00
 -1      2737 5.22056E+01 1.74984E+00 4.24984E+00
 -1      2738 5.29409E+01 1.74984E+00 3.02341E+00
 -1      2739 5.36765E+01 7.50000E+00 5.00000E+00
 -1      2740 5.44118E+01 7.50000E+00 6.22643E+00
 -1      2741 5.22061E+01 8.25034E+00 5.75034E+00
 -1      2742 5.29414E+01 8.25034E+00 6.97678E+00
 -1      2743 5.29414E+01 5.75034E+00 5.75034E+00
 -1      2744 5.44118E+01 6.22643E+00 7.50000E+00
 -1      2745 5.36765E+01 5.00000E+00 7.50000E+00
 -1      2746 5.22061E+01 5.75034E+00 8.25034E+00
 -1      2747 5.29414E+01 6.97678E+00 8.25034E+00
 -1      2748 2.50000E+01 3.77343E+00 7.49987E+00
 -1      2749 2.57353E+01 4.99987E+00 7.49987E+00
 -1      2750 2.64702E+01 3.02315E+00 8.25041E+00
 -1      2751 2.72055E+01 4.24959E+00 8.25041E+00
 -1      2752 2.64702E+01 4.24945E+00 5.75028E+00
 -1      2753 3.60294E+01 7.50000E+00 5.00000E+00
 -1      2754 3.67647E+01 7.50000E+00 6.22643E+00
 -1      2755 3.45588E+01 8.25025E+00 5.75025E+00
 -1      2756 3.52941E+01 8.25025E+00 6.97668E+00
 -1      2757 3.52941E+01 5.75025E+00 5.75025E+00
 -1      2758 3.67647E+01 6.22643E+00 7.50000E+00
 -1      2759 3.60294E+01 5.00000E+00 7.50000E+00
 -1      2760 3.52941E+01 6.97668E+00 8.25025E+00
 -1      2761 3.45588E+01 5.75025E+00 8.25025E+00
 -1      2762 2.57353E+01 2.49987E+00 4.99987E+00
 -1      2763 2.50000E+01 2.49987E+00 6.22630E+00
 -1      2764 2.72055E+01 1.74959E+00 5.75041E+00
 -1      2765 2.64702E+01 1.74959E+00 6.97685E+00
 -1      2766 3.60294E+01 2.50000E+00 5.00000E+00
 -1      2767 3.67647E+01 2.50000E+00 3.77357E+00
 -1      2768 3.45588E+01 1.75122E+00 4.24676E+00
 -1      2769 3.52941E+01 1.75122E+00 3.02032E+00
 -1      2770 3.52941E+01 4.25122E+00 4.24676E+00
 -1      2771 4.92647E+01 5.00046E+00 2.50046E+00
 -1      2772 4.85294E+01 3.77403E+00 2.50046E+00
 -1      2773 4.99998E+01 3.02341E+00 1.74984E+00
 -1      2774 4.99998E+01 4.25030E+00 4.25030E+00
 -1      2775 5.07351E+01 4.24984E+00 1.74984E+00
 -1      2776 4.04417E+01 5.76262E+00 1.74374E+00
 -1      2777 3.75000E+01 2.50000E+00 4.99999E+00
 -1      2778 3.67647E+01 2.50000E+00 6.22643E+00
 -1      2779 3.82302E+01 1.74439E+00 6.98204E+00
 -1      2780 3.82302E+01 4.24439E+00 5.75561E+00
 -1      2781 3.89655E+01 1.74439E+00 5.75560E+00
 -1      2782 3.67647E+01 3.77357E+00 7.50000E+00
 -1      2783 3.75000E+01 5.00001E+00 7.50000E+00
 -1      2784 3.89655E+01 4.24440E+00 8.25561E+00
 -1      2785 3.82302E+01 3.01796E+00 8.25561E+00
 -1      2786 1.79792E+01 2.88141E+00 1.61947E+00
 -1      2787 1.87145E+01 4.12188E+00 1.61947E+00
 -1      2788 1.79792E+01 4.11701E+00 4.11947E+00
 -1      2789 3.75000E+01 7.50000E+00 4.99999E+00
 -1      2790 3.67647E+01 7.50000E+00 3.77357E+00
 -1      2791 3.89655E+01 8.25190E+00 4.24373E+00
 -1      2792 3.82302E+01 8.25190E+00 3.01731E+00
 -1      2793 4.85290E+01 7.50046E+00 6.23658E+00
 -1      2794 4.92647E+01 7.50046E+00 5.00046E+00
 -1      2795 4.99998E+01 8.25034E+00 6.98647E+00
 -1      2796 5.07355E+01 8.25034E+00 5.75034E+00
 -1      2797 5.00002E+01 5.75080E+00 5.75080E+00
 -1      2798 4.18869E+01 7.50000E+00 5.01365E+00
 -1      2799 4.33665E+01 7.50000E+00 5.01071E+00
 -1      2800 1.02807E+01 2.50000E+00 3.76702E+00
 -1      2801 9.55220E+00 2.50000E+00 4.99746E+00
 -1      2802 1.06918E+01 1.61757E+00 4.11694E+00
 -1      2803 1.14207E+01 4.11757E+00 4.11440E+00
 -1      2804 1.14203E+01 1.61757E+00 2.88650E+00
 -1      2805 2.61121E+01 1.60891E+00 2.88038E+00
 -1      2806 2.53768E+01 1.60891E+00 4.10681E+00
 -1      2807 2.38820E+01 2.88418E+00 8.38939E+00
 -1      2808 2.38820E+01 4.11048E+00 5.88926E+00
 -1      2809 2.46173E+01 4.11061E+00 8.38939E+00
 -1      2810 8.97042E+01 3.77357E+00 2.50000E+00
 -1      2811 8.85667E+01 2.89200E+00 1.61844E+00
 -1      2812 8.92986E+01 4.11729E+00 1.61844E+00
 -1      2813 8.85650E+01 4.11844E+00 4.11844E+00
 -1      2814 2.53827E+01 8.38935E+00 5.88935E+00
 -1      2815 2.61180E+01 5.88922E+00 5.88922E+00
 -1      2816 2.61180E+01 8.38935E+00 7.11578E+00
 -1      2817 2.61180E+01 7.11578E+00 8.38935E+00
 -1      2818 2.53827E+01 5.88935E+00 8.38935E+00
 -1      2819 2.46179E+01 8.39001E+00 4.11116E+00
 -1      2820 2.38826E+01 8.39001E+00 2.88472E+00
 -1      2821 7.46172E+01 5.88937E+00 1.61063E+00
 -1      2822 7.38820E+01 7.11581E+00 1.61063E+00
 -1      2823 7.38820E+01 5.88937E+00 4.11063E+00
 -1      2824 7.46172E+01 4.11063E+00 8.38937E+00
 -1      2825 7.38820E+01 2.88419E+00 8.38937E+00
 -1      2826 7.38820E+01 4.11063E+00 5.88937E+00
 -1      2827 7.38820E+01 8.38937E+00 2.88419E+00
 -1      2828 7.46172E+01 8.38937E+00 4.11063E+00
 -1      2829 7.46172E+01 1.61063E+00 5.88937E+00
 -1      2830 7.38820E+01 1.61063E+00 7.11581E+00
 -1      2831 2.38820E+01 1.61061E+00 7.11582E+00
 -1      2832 2.46173E+01 1.61061E+00 5.88939E+00
 -1      2833 3.63820E+01 1.61063E+00 5.88937E+00
 -1      2834 3.56467E+01 4.11063E+00 5.88937E+00
 -1      2835 3.56467E+01 1.61063E+00 7.11581E+00
 -1      2836 3.63820E+01 4.11063E+00 8.38937E+00
 -1      2837 3.56467E+01 2.88419E+00 8.38937E+00
 -1      2838 3.56476E+01 8.39037E+00 2.88507E+00
 -1      2839 3.63829E+01 8.39037E+00 4.11150E+00
 -1      2840 5.48147E+01 4.11930E+00 1.61714E+00
 -1      2841 5.55500E+01 2.88844E+00 1.61714E+00
 -1      2842 5.55500E+01 4.11930E+00 4.11714E+00
 -1      2843 3.71505E+01 8.39187E+00 5.88735E+00
 -1      2844 3.78858E+01 5.89187E+00 5.88736E+00
 -1      2845 3.78858E+01 8.39187E+00 7.11379E+00
 -1      2846 3.78849E+01 1.60946E+00 2.88712E+00
 -1      2847 3.71496E+01 1.60946E+00 4.11355E+00
 -1      2848 3.78849E+01 4.10946E+00 4.11355E+00
 -1      2849 3.71505E+01 5.89188E+00 8.38736E+00
 -1      2850 3.78858E+01 7.11831E+00 8.38736E+00
 -1      2851 8.29400E+01 8.30874E+00 4.19126E+00
 -1      2852 8.29400E+01 5.80874E+00 1.69126E+00
 -1      2853 1.87145E+01 1.61701E+00 4.11947E+00
 -1      2854 1.79792E+01 1.61701E+00 2.88863E+00
 -1      2855 4.74118E+01 2.88142E+00 1.61108E+00
 -1      2856 4.81471E+01 4.10785E+00 1.61108E+00
 -1      2857 4.74118E+01 4.10831E+00 4.11154E+00
 -1      2858 6.20970E+01 2.89301E+00 1.61692E+00
 -1      2859 6.28323E+01 4.11944E+00 1.61692E+00
 -1      2860 6.20970E+01 4.11944E+00 4.11692E+00
 -1      2861 5.48147E+01 1.61930E+00 4.11714E+00
 -1      2862 5.55500E+01 1.61930E+00 2.89071E+00
 -1      2863 6.28323E+01 1.61944E+00 4.11692E+00
 -1      2864 6.20970E+01 1.61944E+00 2.89048E+00
 -1      2865 9.04361E+01 2.50000E+00 5.00115E+00
 -1      2866 8.97042E+01 2.50000E+00 3.77357E+00
 -1      2867 8.92986E+01 1.61844E+00 4.11958E+00
 -1      2868 8.85667E+01 1.61844E+00 2.89200E+00
 -1      2869 4.85294E+01 2.50046E+00 3.77403E+00
 -1      2870 4.92647E+01 2.50046E+00 5.00046E+00
 -1      2871 4.99998E+01 1.74984E+00 3.02341E+00
 -1      2872 5.07351E+01 1.74984E+00 4.24984E+00
 -1      2873 3.67647E+01 3.77357E+00 2.50000E+00
 -1      2874 3.60271E+01 5.00786E+00 2.50000E+00
 -1      2875 3.52941E+01 3.02479E+00 1.74676E+00
 -1      2876 3.45565E+01 4.25908E+00 1.74676E+00
 -1      2877 9.54356E+00 4.99578E+00 2.49746E+00
 -1      2878 1.02816E+01 3.75885E+00 2.49746E+00
 -1      2879 1.06832E+01 4.11334E+00 1.61694E+00
 -1      2880 1.14212E+01 2.87641E+00 1.61694E+00
 -1      2881 2.46474E+01 6.63957E+00 6.63957E+00
 -1      2882 7.53525E+01 6.63962E+00 3.36038E+00
 -1      2883 7.53525E+01 3.36038E+00 6.63962E+00
 -1      2884 4.04214E+01 8.25190E+00 4.25739E+00
 -1      2885 4.81427E+01 8.39136E+00 5.88825E+00
 -1      2886 4.74070E+01 8.39136E+00 7.12437E+00
 -1      2887 4.74074E+01 5.89182E+00 5.88871E+00
 -1      2888 4.48422E+01 8.24807E+00 4.25730E+00
 -1      2889 2.53522E+01 3.36019E+00 6.63981E+00
 -1      2890 4.92647E+01 5.00046E+00 7.50046E+00
 -1      2891 4.85294E+01 6.22689E+00 7.50046E+00
 -1      2892 5.07355E+01 5.75034E+00 8.25034E+00
 -1      2893 5.00002E+01 6.97678E+00 8.25034E+00
 -1      2894 3.71122E+01 3.35502E+00 6.64498E+00
 -1      2895 8.76295E+01 5.80198E+00 1.69802E+00
 -1      2896 9.60344E+01 4.16129E+00 4.14275E+00
 -1      2897 9.45860E+01 2.59179E+00 5.10559E+00
 -1      2898 9.60751E+01 4.10878E+00 6.07450E+00
 -1      2899 3.64152E+01 6.64212E+00 6.63761E+00
 -1      2900 9.45860E+01 5.07769E+00 2.59148E+00
 -1      2901 9.60824E+01 6.06095E+00 4.12232E+00
 -1      2902 1.94498E+01 3.36771E+00 3.36720E+00
 -1      2903 3.64143E+01 3.36068E+00 3.36031E+00
 -1      2904 4.88783E+01 6.64170E+00 6.63859E+00
 -1      2905 4.88821E+01 3.35770E+00 3.36092E+00
 -1      2906 3.71473E+01 4.11733E+00 1.61355E+00
 -1      2907 3.78849E+01 2.88303E+00 1.61355E+00
 -1      2908 4.81471E+01 1.60785E+00 4.11108E+00
 -1      2909 4.74118E+01 1.60785E+00 2.88465E+00
 -1      2910 5.40792E+01 3.36914E+00 3.36699E+00
 -1      2911 5.55521E+01 8.38794E+00 7.09199E+00
 -1      2912 5.48168E+01 8.38794E+00 5.86556E+00
 -1      2913 5.55521E+01 5.88794E+00 5.86556E+00
 -1      2914 6.35676E+01 3.36919E+00 3.36667E+00
 -1      2915 5.48168E+01 5.88794E+00 8.36556E+00
 -1      2916 5.55521E+01 7.11438E+00 8.36556E+00
 -1      2917 1.79794E+01 7.10739E+00 8.38161E+00
 -1      2918 1.87147E+01 5.88096E+00 8.38161E+00
 -1      2919 1.79794E+01 5.88096E+00 5.88161E+00
 -1      2920 4.74074E+01 7.11779E+00 8.38825E+00
 -1      2921 4.81427E+01 5.89136E+00 8.38825E+00
 -1      2922 1.87147E+01 8.38096E+00 5.88161E+00
 -1      2923 1.79794E+01 8.38096E+00 7.10805E+00
 -1      2924 8.85298E+00 1.73594E+00 2.99463E+00
 -1      2925 8.85341E+00 4.23594E+00 4.22253E+00
 -1      2926 8.12452E+00 1.73594E+00 4.22507E+00
 -1      2927 2.39553E+00 5.43155E+00 5.70529E+00
 -1      2928 2.39553E+00 5.59142E+00 4.62393E+00
 -1      2929 1.48761E+00 6.51385E+00 5.54544E+00
 -1      2930 3.88314E+00 6.10487E+00 6.10578E+00
 -1      2931 1.48761E+00 6.35398E+00 6.62680E+00
 -1      2932 1.91176E+01 1.27357E+00 8.72643E+00
 -1      2933 9.18671E+01 4.23403E+00 1.72919E+00
 -1      2934 9.11352E+01 3.00874E+00 1.72919E+00
 -1      2935 9.11336E+01 4.23517E+00 4.22919E+00
 -1      2936 2.39553E+00 4.61501E+00 5.07679E+00
 -1      2937 8.85387E+00 2.99479E+00 1.72507E+00
 -1      2938 8.11587E+00 4.23172E+00 1.72507E+00
 -1      2939 5.40818E+01 6.63829E+00 6.61590E+00
 -1      2940 9.11352E+01 1.73517E+00 3.00276E+00
 -1      2941 9.18671E+01 1.73517E+00 4.23033E+00
 -1      2942 9.76051E+01 5.70495E+00 5.43181E+00
 -1      2943 9.76051E+01 4.62359E+00 5.59168E+00
 -1      2944 9.76051E+01 5.07645E+00 4.61528E+00
 -1      2945 1.94500E+01 6.63118E+00 6.63184E+00
 -1      2946 9.85106E+01 5.56101E+00 6.51158E+00
 -1      2947 9.61157E+01 6.12101E+00 6.10286E+00
 -1      2948 9.85106E+01 6.64238E+00 6.35171E+00
 -1      2949 9.99305E+00 3.35351E+00 3.34200E+00
 -1      2950 8.99961E+01 3.35361E+00 3.34762E+00
 -1      2951 8.38235E+01 1.27357E+00 8.72643E+00
 -1      2952 8.58719E+01 2.79488E+00 8.47869E+00
 -1      2953 8.58719E+01 1.52131E+00 7.20512E+00
 -1      2954 8.32439E+01 1.52102E+00 7.20541E+00
 -1      2955 8.52924E+01 3.04233E+00 6.95767E+00
 -1      2956 8.32439E+01 2.79459E+00 8.47898E+00
 -1      2957 5.73529E+01 1.26571E+00 8.72643E+00
 -1      2958 5.88235E+01 1.26440E+00 8.72643E+00
 -1      2959 5.68853E+01 1.37032E+00 7.31375E+00
 -1      2960 5.83559E+01 2.63472E+00 8.58732E+00
 -1      2961 5.68853E+01 2.63603E+00 8.58732E+00
 -1      2962 8.52941E+01 1.27357E+00 8.72643E+00
 -1      2963 8.73425E+01 2.79488E+00 8.47869E+00
 -1      2964 8.67647E+01 1.27357E+00 8.72643E+00
 -1      2965 8.73425E+01 1.52131E+00 7.20512E+00
 -1      2966 9.38197E+01 6.04958E+00 4.63062E+00
 -1      2967 9.31955E+01 5.94368E+00 2.03914E+00
 -1      2968 9.46920E+01 6.92694E+00 3.56998E+00
 -1      2969 7.00269E+00 5.87517E+00 1.64182E+00
 -1      2970 6.39487E+00 5.98230E+00 4.23395E+00
 -1      2971 5.51458E+00 6.86485E+00 3.17802E+00
 -1      2972 1.53324E+00 4.36981E+00 6.60190E+00
 -1      2973 1.53324E+00 3.55328E+00 5.97341E+00
 -1      2974 9.84774E+01 6.58231E+00 4.37117E+00
 -1      2975 9.84774E+01 5.95381E+00 3.55464E+00
 -1      2976 6.39321E+00 4.22155E+00 5.97878E+00
 -1      2977 7.01439E+00 1.63033E+00 5.87654E+00
 -1      2978 5.53091E+00 3.15981E+00 6.87540E+00
 -1      2979 1.16103E+01 5.80782E+00 4.18956E+00
 -1      2980 1.23479E+01 5.80757E+00 1.69210E+00
 -1      2981 1.10186E+01 4.99974E+00 2.49746E+00
 -1      2982 9.13989E+00 5.89108E+00 4.13928E+00
 -1      2983 9.87743E+00 5.89082E+00 1.64182E+00
 -1      2984 1.04691E+01 6.69890E+00 3.33391E+00
 -1      2985 6.54412E+01 5.75025E+00 8.25025E+00
 -1      2986 6.47059E+01 5.75025E+00 5.75025E+00
 -1      2987 6.39706E+01 5.00000E+00 7.50000E+00
 -1      2988 6.29124E+01 5.91512E+00 8.40864E+00
 -1      2989 6.21771E+01 5.91512E+00 5.90864E+00
 -1      2990 6.36477E+01 6.66537E+00 6.65889E+00
 -1      2991 9.31960E+01 2.02941E+00 5.97132E+00
 -1      2992 9.38202E+01 4.62120E+00 6.04869E+00
 -1      2993 9.46851E+01 3.54640E+00 6.94023E+00
 -1      2994 6.39706E+01 7.50000E+00 5.00000E+00
 -1      2995 6.54412E+01 8.25025E+00 5.75025E+00
 -1      2996 6.29124E+01 8.41512E+00 5.90864E+00
 -1      2997 3.02085E+00 5.04313E+00 7.00240E+00
 -1      2998 5.64865E+01 8.30055E+00 4.19501E+00
 -1      2999 5.57512E+01 5.80055E+00 4.19501E+00
 -1      3000 5.51471E+01 7.50000E+00 5.00000E+00
 -1      3001 5.40290E+01 8.38939E+00 4.11061E+00
 -1      3002 5.32938E+01 5.88939E+00 4.11061E+00
 -1      3003 5.46332E+01 6.68994E+00 3.30562E+00
 -1      3004 8.23150E+00 8.30840E+00 5.81198E+00
 -1      3005 8.96039E+00 5.80840E+00 5.80944E+00
 -1      3006 9.55220E+00 7.50000E+00 4.99746E+00
 -1      3007 1.06889E+01 8.38030E+00 5.88405E+00
 -1      3008 1.14178E+01 5.88030E+00 5.88151E+00
 -1      3009 1.00971E+01 6.68870E+00 6.69603E+00
 -1      3010 5.64865E+01 5.80054E+00 1.69501E+00
 -1      3011 5.51471E+01 4.99999E+00 2.50000E+00
 -1      3012 5.40290E+01 5.88938E+00 1.61061E+00
 -1      3013 6.47059E+01 6.97668E+00 8.25025E+00
 -1      3014 6.21771E+01 7.14155E+00 8.40864E+00
 -1      3015 6.47059E+01 8.25025E+00 6.97668E+00
 -1      3016 6.21771E+01 8.41512E+00 7.13508E+00
 -1      3017 8.22286E+00 5.80418E+00 8.31198E+00
 -1      3018 9.54356E+00 4.99578E+00 7.49746E+00
 -1      3019 1.06803E+01 5.87608E+00 8.38405E+00
 -1      3020 8.89689E+01 2.50000E+00 5.00000E+00
 -1      3021 8.78314E+01 1.61844E+00 4.11844E+00
 -1      3022 6.32353E+01 1.27357E+00 1.27357E+00
 -1      3023 5.44118E+01 1.26914E+00 1.27357E+00
 -1      3024 8.78314E+01 4.11844E+00 1.61844E+00
 -1      3025 1.16076E+01 7.05141E+00 1.69210E+00
 -1      3026 9.13714E+00 7.13467E+00 1.64182E+00
 -1      3027 6.25000E+01 2.50000E+00 5.00000E+00
 -1      3028 6.13617E+01 1.61944E+00 4.11692E+00
 -1      3029 1.91176E+01 1.26440E+00 1.26916E+00
 -1      3030 5.51471E+01 2.50000E+00 5.00000E+00
 -1      3031 5.62853E+01 1.61930E+00 4.11714E+00
 -1      3032 2.01826E+01 6.04358E+00 1.45540E+00
 -1      3033 1.94473E+01 6.03871E+00 3.95540E+00
 -1      3034 1.83089E+01 5.15572E+00 3.07487E+00
 -1      3035 9.69880E+01 6.99838E+00 5.04222E+00
 -1      3036 6.43009E+01 6.04042E+00 1.45958E+00
 -1      3037 6.35656E+01 6.04042E+00 3.95958E+00
 -1      3038 6.24273E+01 5.15986E+00 3.07649E+00
 -1      3039 5.62853E+01 4.11929E+00 1.61714E+00
 -1      3040 5.51471E+01 4.99999E+00 7.50000E+00
 -1      3041 5.62874E+01 5.88794E+00 8.36556E+00
 -1      3042 1.10125E+01 2.50000E+00 4.99652E+00
 -1      3043 1.21521E+01 1.61757E+00 4.11599E+00
 -1      3044 1.72439E+01 4.11700E+00 1.61947E+00
 -1      3045 1.87120E+01 6.03870E+00 1.45540E+00
 -1      3046 1.83824E+01 2.50000E+00 4.99999E+00
 -1      3047 1.72439E+01 1.61701E+00 4.11946E+00
 -1      3048 1.23417E+01 8.30782E+00 4.19115E+00
 -1      3049 1.10125E+01 7.50000E+00 4.99652E+00
 -1      3050 9.87127E+00 8.39108E+00 4.14088E+00
 -1      3051 6.13617E+01 4.11943E+00 1.61692E+00
 -1      3052 6.28303E+01 6.04042E+00 1.45958E+00
 -1      3053 5.44118E+01 8.72643E+00 8.72643E+00
 -1      3054 5.57512E+01 8.30055E+00 2.96857E+00
 -1      3055 5.32938E+01 8.38939E+00 2.88418E+00
 -1      3056 1.21583E+01 4.11731E+00 1.61694E+00
 -1      3057 1.32051E+01 1.26430E+00 8.74889E+00
 -1      3058 1.46762E+01 1.27357E+00 8.74889E+00
 -1      3059 1.52498E+01 1.52846E+00 7.22800E+00
 -1      3060 1.67501E+01 2.80203E+00 8.47911E+00
 -1      3061 1.52790E+01 2.79276E+00 8.47911E+00
 -1      3062 4.22219E+01 8.54246E+00 6.05290E+00
 -1      3063 4.37015E+01 8.54246E+00 6.04996E+00
 -1      3064 4.29617E+01 6.04246E+00 6.03925E+00
 -1      3065 5.57512E+01 7.02698E+00 1.69501E+00
 -1      3066 5.32938E+01 7.11582E+00 1.61061E+00
 -1      3067 1.91176E+01 8.72643E+00 8.72643E+00
 -1      3068 3.86211E+01 5.89188E+00 8.38736E+00
 -1      3069 8.96690E+00 8.30840E+00 7.03841E+00
 -1      3070 1.14243E+01 8.38030E+00 7.11048E+00
 -1      3071 1.83824E+01 5.00000E+00 7.50000E+00
 -1      3072 1.72441E+01 5.88096E+00 8.38161E+00
 -1      3073 1.21492E+01 8.38030E+00 5.88311E+00
 -1      3074 2.01826E+01 8.53871E+00 3.95540E+00
 -1      3075 1.83090E+01 6.91967E+00 4.83701E+00
 -1      3076 3.86211E+01 8.39187E+00 5.88735E+00
 -1      3077 2.31467E+01 4.11061E+00 8.38939E+00
 -1      3078 8.04996E+01 8.38937E+00 5.88937E+00
 -1      3079 7.97643E+01 5.88937E+00 5.88937E+00
 -1      3080 7.90290E+01 8.38937E+00 5.88937E+00
 -1      3081 8.01471E+01 2.50000E+00 5.00000E+00
 -1      3082 8.16176E+01 2.50000E+00 5.00000E+00
 -1      3083 7.90290E+01 1.61063E+00 4.11063E+00
 -1      3084 8.04996E+01 1.61063E+00 4.11063E+00
 -1      3085 7.97643E+01 4.11063E+00 4.11063E+00
 -1      3086 8.16176E+01 5.00000E+00 7.50000E+00
 -1      3087 8.01471E+01 5.00000E+00 7.50000E+00
 -1      3088 7.90290E+01 5.88937E+00 8.38937E+00
 -1      3089 8.04996E+01 5.88937E+00 8.38937E+00
 -1      3090 8.04996E+01 4.11063E+00 1.61063E+00
 -1      3091 7.90290E+01 4.11063E+00 1.61063E+00
 -1      3092 7.60656E+01 3.95958E+00 1.45958E+00
 -1      3093 7.42123E+01 4.84895E+00 3.07020E+00
 -1      3094 7.53303E+01 3.95958E+00 3.95958E+00
 -1      3095 7.60656E+01 6.04042E+00 8.54042E+00
 -1      3096 7.42123E+01 5.15105E+00 6.92980E+00
 -1      3097 7.53303E+01 6.04042E+00 6.04042E+00
 -1      3098 7.60656E+01 8.54042E+00 6.04042E+00
 -1      3099 7.42123E+01 6.92980E+00 5.15105E+00
 -1      3100 7.60656E+01 1.45958E+00 3.95958E+00
 -1      3101 7.42123E+01 3.07020E+00 4.84895E+00
 -1      3102 2.31467E+01 1.61061E+00 5.88939E+00
 -1      3103 2.68533E+01 5.88935E+00 8.38935E+00
 -1      3104 2.68533E+01 8.38935E+00 5.88935E+00
 -1      3105 5.25585E+01 8.38939E+00 4.11061E+00
 -1      3106 5.25585E+01 5.88939E+00 1.61061E+00
 -1      3107 3.49114E+01 1.61063E+00 5.88937E+00
 -1      3108 3.49114E+01 4.11063E+00 8.38937E+00
 -1      3109 8.20198E+01 4.11828E+00 4.11828E+00
 -1      3110 8.27551E+01 1.61828E+00 4.11828E+00
 -1      3111 8.09018E+01 3.22891E+00 3.22891E+00
 -1      3112 8.20198E+01 5.88172E+00 5.88172E+00
 -1      3113 8.27551E+01 8.38172E+00 5.88172E+00
 -1      3114 8.09018E+01 6.77109E+00 6.77109E+00
 -1      3115 8.27551E+01 5.88172E+00 8.38172E+00
 -1      3116 8.27551E+01 4.11828E+00 1.61828E+00
 -1      3117 1.26239E+01 1.52879E+00 7.23044E+00
 -1      3118 1.26531E+01 2.79309E+00 8.48155E+00
 -1      3119 1.46978E+01 3.05725E+00 6.96067E+00
 -1      3120 3.86202E+01 1.60946E+00 4.11354E+00
 -1      3121 2.31473E+01 8.39001E+00 4.11116E+00
 -1      3122 2.31464E+01 5.89447E+00 1.61116E+00
 -1      3123 1.10186E+01 4.99974E+00 7.49746E+00
 -1      3124 1.21553E+01 5.88004E+00 8.38405E+00
 -1      3125 3.49123E+01 8.39037E+00 4.11151E+00
 -1      3126 3.86233E+01 4.11618E+00 1.61355E+00
 -1      3127 1.72441E+01 8.38096E+00 5.88160E+00
 -1      3128 1.87120E+01 8.53871E+00 3.95539E+00
 -1      3129 2.68467E+01 4.11103E+00 1.60681E+00
 -1      3130 2.68474E+01 1.60891E+00 4.10681E+00
 -1      3131 4.37263E+01 3.97221E+00 1.46202E+00
 -1      3132 4.22467E+01 3.96927E+00 1.46202E+00
 -1      3133 4.29662E+01 3.95856E+00 3.96202E+00
 -1      3134 3.67647E+01 8.72643E+00 8.72643E+00
 -1      3135 5.62874E+01 8.38794E+00 5.86556E+00
 -1      3136 4.95951E+01 6.04042E+00 1.45958E+00
 -1      3137 4.88598E+01 6.04088E+00 3.96004E+00
 -1      3138 4.77421E+01 5.14828E+00 3.07066E+00
 -1      3139 7.50000E+01 1.27357E+00 8.72643E+00
 -1      3140 7.50000E+01 8.72643E+00 1.27357E+00
 -1      3141 2.50000E+01 8.72643E+00 8.72643E+00
 -1      3142 8.40236E+00 5.88686E+00 1.64182E+00
 -1      3143 4.95945E+01 3.95905E+00 8.54095E+00
 -1      3144 4.88593E+01 3.95950E+00 6.04141E+00
 -1      3145 4.77373E+01 4.85040E+00 6.92921E+00
 -1      3146 2.50000E+01 1.27357E+00 8.72643E+00
 -1      3147 3.49100E+01 5.89824E+00 1.61151E+00
 -1      3148 4.95951E+01 8.54042E+00 3.95958E+00
 -1      3149 4.77378E+01 6.93178E+00 4.84783E+00
 -1      3150 4.95945E+01 1.45905E+00 6.04095E+00
 -1      3151 4.77416E+01 3.06690E+00 5.15203E+00
 -1      3152 1.03815E+00 1.05462E+00 4.98731E+00
 -1      3153 1.08253E+00 1.05462E+00 6.20166E+00
 -1      3154 2.57138E+00 1.52948E+00 5.39941E+00
 -1      3155 2.61577E+00 1.52948E+00 6.61375E+00
 -1      3156 1.53324E+00 2.58410E+00 6.56541E+00
 -1      3157 2.50000E+01 8.74985E+00 1.27357E+00
 -1      3158 3.67647E+01 1.27357E+00 1.27357E+00
 -1      3159 1.16099E+01 8.30782E+00 2.96166E+00
 -1      3160 9.13947E+00 8.39108E+00 2.91138E+00
 -1      3161 2.50000E+01 1.26421E+00 1.27357E+00
 -1      3162 8.66064E+01 3.74375E+00 6.25625E+00
 -1      3163 8.45580E+01 3.49600E+00 7.77757E+00
 -1      3164 8.39784E+01 3.74346E+00 6.25654E+00
 -1      3165 8.45580E+01 2.22243E+00 6.50400E+00
 -1      3166 6.08729E+01 1.52194E+00 7.20631E+00
 -1      3167 6.01376E+01 3.74512E+00 6.25724E+00
 -1      3168 5.95588E+01 2.22318E+00 6.50379E+00
 -1      3169 5.83559E+01 1.37032E+00 7.31375E+00
 -1      3170 5.76206E+01 3.59350E+00 6.36468E+00
 -1      3171 5.89347E+01 2.89226E+00 7.06720E+00
 -1      3172 8.95763E+00 7.05199E+00 8.31198E+00
 -1      3173 1.14150E+01 7.12389E+00 8.38405E+00
 -1      3174 4.85290E+01 8.72643E+00 8.73612E+00
 -1      3175 4.85294E+01 1.27357E+00 1.27357E+00
 -1      3176 7.31467E+01 4.11063E+00 8.38937E+00
 -1      3177 7.45950E+01 6.04042E+00 8.54042E+00
 -1      3178 7.31467E+01 5.88937E+00 1.61063E+00
 -1      3179 7.45950E+01 3.95958E+00 1.45958E+00
 -1      3180 7.31467E+01 1.61063E+00 5.88937E+00
 -1      3181 7.45950E+01 1.45958E+00 3.95958E+00
 -1      3182 7.31467E+01 8.38937E+00 4.11063E+00
 -1      3183 7.45950E+01 8.54042E+00 6.04042E+00
 -1      3184 3.67647E+01 1.27357E+00 8.72643E+00
 -1      3185 4.66765E+01 4.10784E+00 1.61108E+00
 -1      3186 4.81245E+01 6.04042E+00 1.45958E+00
 -1      3187 4.66690E+01 5.88673E+00 8.38825E+00
 -1      3188 4.81209E+01 3.95442E+00 8.54095E+00
 -1      3189 9.17999E+01 2.02941E+00 5.95836E+00
 -1      3190 9.10663E+01 4.52941E+00 5.95721E+00
 -1      3191 8.95450E+01 1.52131E+00 5.97983E+00
 -1      3192 8.88114E+01 4.02131E+00 5.97869E+00
 -1      3193 9.01753E+01 3.55072E+00 6.93590E+00
 -1      3194 3.67647E+01 8.74871E+00 1.27357E+00
 -1      3195 4.66690E+01 8.39136E+00 5.89288E+00
 -1      3196 4.81214E+01 8.54042E+00 3.96420E+00
 -1      3197 8.41100E+00 8.39108E+00 4.14182E+00
 -1      3198 4.66734E+01 1.60785E+00 4.11570E+00
 -1      3199 4.81209E+01 1.45905E+00 6.04558E+00
 -1      3200 1.62040E+01 1.27357E+00 8.74871E+00
 -1      3201 1.67776E+01 1.52846E+00 7.22782E+00
 -1      3202 9.63402E+01 7.18108E+00 1.53084E+00
 -1      3203 9.40774E+01 7.16971E+00 2.03914E+00
 -1      3204 4.53195E+00 8.47377E+00 4.02609E+00
 -1      3205 5.41224E+00 7.59122E+00 5.08202E+00
 -1      3206 7.01606E+00 8.39108E+00 4.13171E+00
 -1      3207 9.89619E+01 4.98731E+00 1.05462E+00
 -1      3208 9.89619E+01 3.78802E+00 1.05677E+00
 -1      3209 9.84293E+01 4.64616E+00 2.60589E+00
 -1      3210 9.84293E+01 3.44686E+00 2.60804E+00
 -1      3211 9.73911E+01 3.48016E+00 1.55127E+00
 -1      3212 1.33855E+01 3.75544E+00 6.25536E+00
 -1      3213 1.39667E+01 3.49095E+00 7.77381E+00
 -1      3214 1.60114E+01 3.75511E+00 6.25292E+00
 -1      3215 4.27880E+00 7.59122E+00 5.09797E+00
 -1      3216 3.37088E+00 8.51365E+00 6.01949E+00
 -1      3217 4.50433E+00 8.51365E+00 6.00354E+00
 -1      3218 9.89175E+01 6.20166E+00 1.05462E+00
 -1      3219 9.84774E+01 6.54581E+00 2.58546E+00
 -1      3220 9.74392E+01 5.37981E+00 1.53084E+00
 -1      3221 9.73948E+01 6.59416E+00 1.53084E+00
 -1      3222 3.39851E+00 8.47377E+00 4.04204E+00
 -1      3223 9.57208E+01 7.59179E+00 5.08725E+00
 -1      3224 9.45860E+01 7.59179E+00 5.10559E+00
 -1      3225 9.65931E+01 8.46916E+00 4.02661E+00
 -1      3226 9.54582E+01 8.46916E+00 4.04495E+00
 -1      3227 9.38874E+01 4.32697E+00 4.32067E+00
 -1      3228 9.32632E+01 1.73517E+00 4.24329E+00
 -1      3229 9.47116E+01 3.30467E+00 3.28046E+00
 -1      3230 6.25000E+01 4.99999E+00 7.50000E+00
 -1      3231 6.14418E+01 5.91511E+00 8.40864E+00
 -1      3232 2.24115E+01 4.86083E+00 6.63961E+00
 -1      3233 2.24113E+01 3.36131E+00 5.13712E+00
 -1      3234 4.53658E+00 4.01357E+00 8.48875E+00
 -1      3235 5.39887E+00 5.07531E+00 7.59213E+00
 -1      3236 7.00102E+00 4.11442E+00 8.38665E+00
 -1      3237 4.27478E+00 5.09465E+00 7.59213E+00
 -1      3238 4.49096E+00 5.99774E+00 8.51365E+00
 -1      3239 3.36687E+00 6.01708E+00 8.51365E+00
 -1      3240 8.80778E+01 1.52131E+00 5.97869E+00
 -1      3241 6.16082E+01 1.52194E+00 5.97988E+00
 -1      3242 6.23435E+01 4.02194E+00 5.97988E+00
 -1      3243 6.30788E+01 1.52194E+00 5.97988E+00
 -1      3244 5.46795E+01 1.37032E+00 6.08732E+00
 -1      3245 5.54148E+01 3.87032E+00 6.08732E+00
 -1      3246 5.61501E+01 1.37032E+00 6.08732E+00
 -1      3247 8.10380E+01 4.02102E+00 8.47898E+00
 -1      3248 8.25086E+01 4.02102E+00 8.47898E+00
 -1      3249 8.17733E+01 4.02102E+00 5.97898E+00
 -1      3250 8.25086E+01 1.52102E+00 5.97898E+00
 -1      3251 8.10380E+01 1.52102E+00 5.97898E+00
 -1      3252 5.46795E+01 3.87032E+00 8.58732E+00
 -1      3253 5.61501E+01 3.87031E+00 8.58732E+00
 -1      3254 6.16082E+01 4.02193E+00 8.47988E+00
 -1      3255 6.30788E+01 4.02194E+00 8.47988E+00
 -1      3256 9.32632E+01 4.22107E+00 1.72919E+00
 -1      3257 8.97059E+01 1.27357E+00 1.27357E+00
 -1      3258 6.43009E+01 8.54042E+00 3.95958E+00
 -1      3259 6.25074E+01 6.95554E+00 4.86822E+00
 -1      3260 8.89689E+01 7.50000E+00 5.00000E+00
 -1      3261 9.04361E+01 7.50000E+00 5.00115E+00
 -1      3262 9.11530E+01 8.54010E+00 6.04124E+00
 -1      3263 9.04194E+01 6.04010E+00 6.04010E+00
 -1      3264 8.96858E+01 8.54010E+00 6.04010E+00
 -1      3265 3.41249E+00 4.03291E+00 8.48875E+00
 -1      3266 7.86765E+01 4.24975E+00 8.25025E+00
 -1      3267 7.94118E+01 4.24975E+00 5.75025E+00
 -1      3268 8.03028E+01 3.27077E+00 6.72923E+00
 -1      3269 7.86765E+01 1.74975E+00 5.75025E+00
 -1      3270 1.39375E+01 2.22665E+00 6.52269E+00
 -1      3271 9.10680E+01 2.02941E+00 7.18364E+00
 -1      3272 8.88131E+01 1.52131E+00 7.20512E+00
 -1      3273 1.02811E+01 1.25885E+00 1.26956E+00
 -1      3274 1.04390E+01 4.02457E+00 8.48155E+00
 -1      3275 1.19140E+01 4.02854E+00 8.48155E+00
 -1      3276 1.11765E+01 4.02879E+00 5.97902E+00
 -1      3277 1.74854E+01 4.02846E+00 8.47911E+00
 -1      3278 1.04476E+01 1.52879E+00 5.98155E+00
 -1      3279 1.19079E+01 1.52879E+00 5.98061E+00
 -1      3280 1.74854E+01 1.52846E+00 5.97910E+00
 -1      3281 3.65694E+00 8.47377E+00 2.82797E+00
 -1      3282 3.64950E+00 7.18661E+00 1.53620E+00
 -1      3283 4.27598E+00 8.71284E+00 1.29177E+00
 -1      3284 6.14105E+00 8.39108E+00 2.93359E+00
 -1      3285 6.13361E+00 7.10392E+00 1.64182E+00
 -1      3286 9.66264E+01 8.52922E+00 6.00714E+00
 -1      3287 9.46459E+01 5.96333E+00 6.32708E+00
 -1      3288 9.51566E+01 8.37153E+00 6.23136E+00
 -1      3289 9.55514E+01 6.90076E+00 7.24697E+00
 -1      3290 9.63402E+01 8.46916E+00 2.81892E+00
 -1      3291 9.57256E+01 8.71192E+00 1.28808E+00
 -1      3292 9.40774E+01 8.45779E+00 3.32721E+00
 -1      3293 9.63258E+01 1.51699E+00 7.19531E+00
 -1      3294 9.40709E+01 2.02941E+00 7.16951E+00
 -1      3295 1.03815E+00 1.05677E+00 3.78802E+00
 -1      3296 1.54945E+00 2.58587E+00 3.40632E+00
 -1      3297 2.58759E+00 1.52910E+00 3.43962E+00
 -1      3298 1.54945E+00 2.58372E+00 4.60561E+00
 -1      3299 9.84293E+01 3.60129E+00 4.55147E+00
 -1      3300 9.84700E+01 3.54878E+00 6.48322E+00
 -1      3301 6.32353E+01 8.72643E+00 8.72643E+00
 -1      3302 1.51523E+00 6.47397E+00 3.56800E+00
 -1      3303 3.00285E+00 6.98742E+00 5.04985E+00
 -1      3304 6.72958E+00 1.73594E+00 4.21496E+00
 -1      3305 6.10839E+00 4.32716E+00 4.31720E+00
 -1      3306 5.26231E+00 3.26504E+00 3.25403E+00
 -1      3307 9.84293E+01 4.05416E+00 3.57506E+00
 -1      3308 8.20198E+01 1.61828E+00 2.89185E+00
 -1      3309 7.97643E+01 1.61063E+00 2.88419E+00
 -1      3310 8.20198E+01 8.38172E+00 7.10815E+00
 -1      3311 7.97643E+01 8.38937E+00 7.11581E+00
 -1      3312 8.20198E+01 7.10815E+00 8.38172E+00
 -1      3313 7.97643E+01 7.11581E+00 8.38937E+00
 -1      3314 8.20198E+01 2.89185E+00 1.61828E+00
 -1      3315 7.97643E+01 2.88419E+00 1.61063E+00
 -1      3316 6.71621E+00 4.22003E+00 1.72507E+00
 -1      3317 9.89175E+01 6.21046E+00 8.87148E+00
 -1      3318 9.89619E+01 4.99612E+00 8.87148E+00
 -1      3319 9.74724E+01 5.43988E+00 8.51138E+00
 -1      3320 9.85106E+01 6.61468E+00 7.38285E+00
 -1      3321 9.74281E+01 6.65422E+00 8.51138E+00
 -1      3322 3.67049E+00 1.52948E+00 7.20063E+00
 -1      3323 3.67318E+00 2.81597E+00 8.48875E+00
 -1      3324 4.27720E+00 1.28649E+00 8.71188E+00
 -1      3325 6.13493E+00 1.63033E+00 7.09853E+00
 -1      3326 6.13762E+00 2.91682E+00 8.38665E+00
 -1      3327 8.95450E+01 4.02017E+00 8.47869E+00
 -1      3328 9.04361E+01 4.99885E+00 7.50000E+00
 -1      3329 9.11530E+01 6.03895E+00 8.54010E+00
 -1      3330 8.95283E+01 5.06141E+00 7.01878E+00
 -1      3331 8.80778E+01 4.02131E+00 8.47869E+00
 -1      3332 8.96858E+01 6.04010E+00 8.54010E+00
 -1      3333 9.66264E+01 6.03346E+00 8.51138E+00
 -1      3334 9.69806E+01 5.04621E+00 6.99439E+00
 -1      3335 6.50886E+01 1.61063E+00 5.88937E+00
 -1      3336 6.43533E+01 4.11063E+00 5.88937E+00
 -1      3337 6.34615E+01 3.13257E+00 6.86926E+00
 -1      3338 5.32938E+01 4.11061E+00 5.88939E+00
 -1      3339 5.25585E+01 1.61061E+00 5.88939E+00
 -1      3340 5.42967E+01 2.98093E+00 6.97671E+00
 -1      3341 6.50886E+01 4.11062E+00 8.38937E+00
 -1      3342 5.25585E+01 4.11061E+00 8.38939E+00
 -1      3343 6.14418E+01 8.41512E+00 5.90864E+00
 -1      3344 6.28303E+01 8.54042E+00 3.95958E+00
 -1      3345 1.08253E+00 8.87148E+00 6.21046E+00
 -1      3346 1.03815E+00 8.87148E+00 4.99612E+00
 -1      3347 2.57014E+00 8.51365E+00 6.63865E+00
 -1      3348 2.52576E+00 8.51365E+00 5.42431E+00
 -1      3349 1.48761E+00 7.38512E+00 6.59911E+00
 -1      3350 9.63258E+01 2.80469E+00 8.48301E+00
 -1      3351 9.57116E+01 1.28770E+00 8.71230E+00
 -1      3352 9.40709E+01 3.31711E+00 8.45721E+00
 -1      3353 1.03619E+00 3.87992E+00 8.84770E+00
 -1      3354 1.08253E+00 5.09618E+00 8.84770E+00
 -1      3355 2.57014E+00 6.63865E+00 8.51365E+00
 -1      3356 1.48761E+00 5.48483E+00 7.36135E+00
 -1      3357 2.52381E+00 5.42238E+00 8.51365E+00
 -1      3358 6.83656E+00 8.30840E+00 5.80187E+00
 -1      3359 6.21537E+00 5.89962E+00 5.90411E+00
 -1      3360 5.30746E+00 6.82205E+00 6.82563E+00
 -1      3361 9.89619E+01 1.11764E+00 5.05449E+00
 -1      3362 9.89175E+01 1.11764E+00 3.84015E+00
 -1      3363 9.73911E+01 1.56950E+00 4.64061E+00
 -1      3364 9.73468E+01 1.56950E+00 3.42627E+00
 -1      3365 9.84293E+01 2.68714E+00 3.51642E+00
 -1      3366 6.82319E+00 5.79249E+00 8.31198E+00
 -1      3367 9.24969E+01 5.19296E+00 3.76832E+00
 -1      3368 1.55741E+01 5.80459E+00 1.69808E+00
 -1      3369 1.57731E+01 4.11704E+00 1.61947E+00
 -1      3370 1.66418E+01 4.92156E+00 3.31754E+00
 -1      3371 1.45016E+01 4.92212E+00 3.31501E+00
 -1      3372 1.47006E+01 3.23458E+00 3.23640E+00
 -1      3373 1.36329E+01 4.11760E+00 1.61694E+00
 -1      3374 9.17999E+01 4.52827E+00 8.45721E+00
 -1      3375 8.61589E+01 8.30198E+00 4.19802E+00
 -1      3376 8.72257E+01 6.68354E+00 5.07959E+00
 -1      3377 8.63608E+01 8.38156E+00 5.88156E+00
 -1      3378 8.42257E+01 8.38172E+00 5.88172E+00
 -1      3379 8.52924E+01 6.76328E+00 6.76328E+00
 -1      3380 8.50905E+01 6.68369E+00 5.07974E+00
 -1      3381 8.61589E+01 5.80198E+00 1.69802E+00
 -1      3382 8.63608E+01 4.11844E+00 1.61844E+00
 -1      3383 8.72257E+01 4.92041E+00 3.31646E+00
 -1      3384 8.50905E+01 4.92026E+00 3.31631E+00
 -1      3385 8.52924E+01 3.23672E+00 3.23672E+00
 -1      3386 8.42257E+01 4.11828E+00 1.61828E+00
 -1      3387 1.46912E+01 6.61238E+00 3.39017E+00
 -1      3388 1.38225E+01 5.80786E+00 1.69210E+00
 -1      3389 1.27500E+01 4.92539E+00 3.30903E+00
 -1      3390 2.09178E+01 5.28941E+00 3.20314E+00
 -1      3391 6.50362E+01 6.79067E+00 4.70983E+00
 -1      3392 7.68009E+01 6.79067E+00 5.29017E+00
 -1      3393 7.68009E+01 4.70983E+00 3.20933E+00
 -1      3394 7.68009E+01 5.29017E+00 6.79067E+00
 -1      3395 7.68009E+01 3.20933E+00 4.70983E+00
 -1      3396 6.50362E+01 5.29017E+00 3.20933E+00
 -1      3397 1.08253E+00 5.09015E+00 1.11764E+00
 -1      3398 1.03619E+00 3.87388E+00 1.11764E+00
 -1      3399 2.55143E+00 5.38250E+00 1.53620E+00
 -1      3400 1.51523E+00 5.43891E+00 2.65385E+00
 -1      3401 2.59777E+00 6.59877E+00 1.53620E+00
 -1      3402 8.44106E+01 8.30874E+00 4.19126E+00
 -1      3403 8.52754E+01 6.61072E+00 3.38928E+00
 -1      3404 8.33422E+01 6.69046E+00 5.07297E+00
 -1      3405 8.44106E+01 5.80874E+00 1.69126E+00
 -1      3406 8.33422E+01 4.92703E+00 3.30954E+00
 -1      3407 5.03301E+01 5.29027E+00 3.20942E+00
 -1      3408 7.71220E+00 5.12702E+00 3.36689E+00
 -1      3409 9.24974E+01 3.76458E+00 5.18640E+00
 -1      3410 2.09179E+01 6.78893E+00 4.70563E+00
 -1      3411 7.94118E+01 3.02332E+00 8.25025E+00
 -1      3412 8.17733E+01 2.79459E+00 8.47898E+00
 -1      3413 7.94118E+01 1.74975E+00 6.97668E+00
 -1      3414 8.17733E+01 1.52102E+00 7.20541E+00
 -1      3415 9.13822E+00 4.13033E+00 5.88411E+00
 -1      3416 8.40934E+00 1.63033E+00 5.88665E+00
 -1      3417 1.00336E+01 3.15912E+00 6.86820E+00
 -1      3418 5.03296E+01 3.20889E+00 5.29080E+00
 -1      3419 9.89175E+01 8.84770E+00 3.84618E+00
 -1      3420 9.89619E+01 8.84770E+00 5.06053E+00
 -1      3421 9.73948E+01 8.46916E+00 3.40584E+00
 -1      3422 9.74392E+01 8.46916E+00 4.62019E+00
 -1      3423 9.84774E+01 7.31686E+00 3.50203E+00
 -1      3424 1.38193E+01 8.30782E+00 4.19623E+00
 -1      3425 1.55709E+01 8.30455E+00 4.20221E+00
 -1      3426 1.36268E+01 8.38030E+00 5.88818E+00
 -1      3427 1.44986E+01 6.68485E+00 5.08213E+00
 -1      3428 1.27470E+01 6.68812E+00 5.07615E+00
 -1      3429 5.03306E+01 6.79077E+00 4.70992E+00
 -1      3430 5.03301E+01 4.70939E+00 6.79130E+00
 -1      3431 4.44419E+01 4.70663E+00 3.20861E+00
 -1      3432 4.44373E+01 6.79053E+00 5.28584E+00
 -1      3433 7.71054E+00 3.36627E+00 5.11172E+00
 -1      3434 8.40069E+00 4.12611E+00 8.38665E+00
 -1      3435 5.98911E+01 4.12431E+00 1.61692E+00
 -1      3436 5.90247E+01 4.91999E+00 3.31192E+00
 -1      3437 5.79571E+01 5.80541E+00 1.69501E+00
 -1      3438 5.77559E+01 4.12417E+00 1.61714E+00
 -1      3439 5.68894E+01 4.91985E+00 3.31215E+00
 -1      3440 5.88235E+01 3.23874E+00 3.23406E+00
 -1      3441 1.66419E+01 6.68551E+00 5.07969E+00
 -1      3442 1.57701E+01 8.38096E+00 5.88575E+00
 -1      3443 1.46978E+01 6.76126E+00 6.76566E+00
 -1      3444 9.84700E+01 4.60244E+00 7.35449E+00
 -1      3445 9.74319E+01 3.42764E+00 8.48301E+00
 -1      3446 1.08253E+00 6.28103E+00 9.09248E+00
 -1      3447 1.48761E+00 6.66968E+00 7.60613E+00
 -1      3448 7.16761E+01 1.61063E+00 5.88937E+00
 -1      3449 7.24114E+01 3.36038E+00 5.13913E+00
 -1      3450 7.13235E+01 1.74975E+00 4.24975E+00
 -1      3451 6.95226E+01 1.45958E+00 6.04042E+00
 -1      3452 7.02579E+01 3.20933E+00 5.29017E+00
 -1      3453 7.06104E+01 3.07020E+00 6.92980E+00
 -1      3454 7.13235E+01 5.75025E+00 8.25025E+00
 -1      3455 7.24114E+01 4.86087E+00 6.63962E+00
 -1      3456 7.16761E+01 4.11063E+00 8.38937E+00
 -1      3457 6.95226E+01 3.95958E+00 8.54042E+00
 -1      3458 7.02579E+01 4.70983E+00 6.79067E+00
 -1      3459 9.17994E+01 8.45779E+00 4.54028E+00
 -1      3460 9.17827E+01 6.99788E+00 5.57923E+00
 -1      3461 5.95588E+01 3.48758E+00 7.77736E+00
 -1      3462 5.88235E+01 4.72805E+00 7.77736E+00
 -1      3463 5.80882E+01 3.48889E+00 7.77736E+00
 -1      3464 3.93513E+01 5.13627E+00 6.64296E+00
 -1      3465 4.00770E+01 5.87822E+00 8.38736E+00
 -1      3466 4.04214E+01 4.23074E+00 8.25561E+00
 -1      3467 4.14962E+01 5.28685E+00 6.79486E+00
 -1      3468 4.22219E+01 6.02880E+00 8.53925E+00
 -1      3469 4.11518E+01 6.93433E+00 6.92660E+00
 -1      3470 4.00762E+01 1.60946E+00 4.12720E+00
 -1      3471 3.93504E+01 3.35385E+00 4.86916E+00
 -1      3472 4.04214E+01 1.74439E+00 5.76926E+00
 -1      3473 4.22264E+01 1.45856E+00 3.97567E+00
 -1      3474 4.15007E+01 3.20295E+00 4.71763E+00
 -1      3475 4.11554E+01 3.06802E+00 3.07557E+00
 -1      3476 3.93504E+01 4.86137E+00 3.35729E+00
 -1      3477 4.00965E+01 4.12018E+00 1.61355E+00
 -1      3478 4.15007E+01 4.71046E+00 3.20576E+00
 -1      3479 9.65858E+01 4.02122E+00 8.48301E+00
 -1      3480 9.54509E+01 4.00288E+00 8.48301E+00
 -1      3481 9.40217E+01 5.85743E+00 8.73559E+00
 -1      3482 9.55108E+01 4.88852E+00 7.21861E+00
 -1      3483 9.51566E+01 5.87577E+00 8.73559E+00
 -1      3484 2.05882E+01 1.27357E+00 8.72643E+00
 -1      3485 2.20588E+01 1.27357E+00 8.72643E+00
 -1      3486 2.24114E+01 1.61061E+00 7.11582E+00
 -1      3487 2.24114E+01 2.88418E+00 8.38939E+00
 -1      3488 9.17832E+01 5.56951E+00 6.99731E+00
 -1      3489 8.76740E+01 3.13975E+00 5.09712E+00
 -1      3490 8.29108E+01 3.13931E+00 5.09726E+00
 -1      3491 8.29108E+01 4.90274E+00 6.86069E+00
 -1      3492 1.51523E+00 7.34524E+00 4.62166E+00
 -1      3493 2.55338E+00 8.47377E+00 3.44686E+00
 -1      3494 9.40217E+01 8.37153E+00 6.24970E+00
 -1      3495 5.65530E+01 2.98962E+00 5.20446E+00
 -1      3496 6.12052E+01 3.14138E+00 5.09680E+00
 -1      3497 4.00770E+01 8.39187E+00 5.90101E+00
 -1      3498 3.93513E+01 6.64378E+00 5.13110E+00
 -1      3499 4.14962E+01 6.79436E+00 5.28299E+00
 -1      3500 5.96942E+01 5.84244E+00 1.76543E+00
 -1      3501 5.88277E+01 6.63812E+00 3.46043E+00
 -1      3502 6.07618E+01 4.95701E+00 3.38235E+00
 -1      3503 8.78314E+01 8.38156E+00 5.88156E+00
 -1      3504 8.85650E+01 5.88156E+00 5.88156E+00
 -1      3505 8.92819E+01 6.92166E+00 6.92166E+00
 -1      3506 6.12853E+01 4.93706E+00 6.88852E+00
 -1      3507 2.56943E+00 3.43821E+00 8.48875E+00
 -1      3508 1.53324E+00 3.50067E+00 7.33645E+00
 -1      3509 5.44118E+01 8.72643E+00 1.27357E+00
 -1      3510 8.38235E+01 8.72643E+00 8.72643E+00
 -1      3511 8.56255E+01 8.38156E+00 7.10800E+00
 -1      3512 8.56255E+01 7.10800E+00 8.38156E+00
 -1      3513 8.34904E+01 7.10815E+00 8.38172E+00
 -1      3514 8.34904E+01 8.38172E+00 7.10815E+00
 -1      3515 8.38235E+01 1.27357E+00 1.27357E+00
 -1      3516 8.56255E+01 1.61844E+00 2.89200E+00
 -1      3517 8.56255E+01 2.89200E+00 1.61844E+00
 -1      3518 8.34904E+01 2.89185E+00 1.61828E+00
 -1      3519 8.34904E+01 1.61828E+00 2.89185E+00
 -1      3520 8.52941E+01 8.72643E+00 8.72643E+00
 -1      3521 8.70961E+01 7.10800E+00 8.38156E+00
 -1      3522 8.52941E+01 1.27357E+00 1.27357E+00
 -1      3523 8.70961E+01 2.89200E+00 1.61844E+00
 -1      3524 8.67647E+01 1.27357E+00 1.27357E+00
 -1      3525 8.70961E+01 1.61844E+00 2.89200E+00
 -1      3526 8.67647E+01 8.72643E+00 8.72643E+00
 -1      3527 8.70961E+01 8.38156E+00 7.10800E+00
 -1      3528 5.65551E+01 4.75826E+00 6.95287E+00
 -1      3529 1.23132E+01 4.90909E+00 6.86561E+00
 -1      3530 5.88235E+01 1.26571E+00 1.27357E+00
 -1      3531 6.02941E+01 1.26440E+00 1.27357E+00
 -1      3532 5.91558E+01 2.88515E+00 1.61692E+00
 -1      3533 6.06264E+01 2.88384E+00 1.61692E+00
 -1      3534 6.06264E+01 1.61944E+00 2.89048E+00
 -1      3535 3.62188E+00 7.22649E+00 8.51365E+00
 -1      3536 3.62487E+00 8.51365E+00 7.22553E+00
 -1      3537 4.27153E+00 8.71284E+00 8.71188E+00
 -1      3538 5.95411E+00 7.02125E+00 8.31198E+00
 -1      3539 5.95710E+00 8.30840E+00 7.02386E+00
 -1      3540 1.70823E+01 3.14547E+00 5.09858E+00
 -1      3541 9.84700E+01 2.63463E+00 5.44816E+00
 -1      3542 9.74319E+01 1.51699E+00 6.57236E+00
 -1      3543 6.97965E+01 6.04042E+00 8.54042E+00
 -1      3544 6.87309E+01 5.00000E+00 7.08085E+00
 -1      3545 7.05318E+01 6.79067E+00 6.79067E+00
 -1      3546 6.99094E+01 1.45958E+00 3.95958E+00
 -1      3547 7.06447E+01 3.20933E+00 3.20933E+00
 -1      3548 6.88438E+01 2.91915E+00 5.00000E+00
 -1      3549 1.70824E+01 4.90942E+00 6.86072E+00
 -1      3550 1.02779E+01 8.74359E+00 1.26956E+00
 -1      3551 9.74724E+01 8.52922E+00 6.60072E+00
 -1      3552 9.85106E+01 7.37692E+00 5.48256E+00
 -1      3553 1.32308E+01 1.26430E+00 1.26324E+00
 -1      3554 1.47036E+01 1.26430E+00 1.26629E+00
 -1      3555 1.28973E+01 2.88187E+00 1.61694E+00
 -1      3556 1.43667E+01 1.61757E+00 2.88322E+00
 -1      3557 1.28938E+01 1.61757E+00 2.88017E+00
 -1      3558 2.75890E+01 6.63564E+00 5.13152E+00
 -1      3559 1.23161E+01 3.14636E+00 5.09849E+00
 -1      3560 2.24121E+01 6.64023E+00 4.86138E+00
 -1      3561 2.24119E+01 5.14071E+00 3.35889E+00
 -1      3562 6.58239E+01 4.86087E+00 6.63962E+00
 -1      3563 7.82937E+01 5.13913E+00 6.63962E+00
 -1      3564 7.82937E+01 6.63962E+00 5.13913E+00
 -1      3565 7.82937E+01 4.86087E+00 3.36038E+00
 -1      3566 7.82937E+01 3.36038E+00 4.86087E+00
 -1      3567 6.58239E+01 3.36038E+00 5.13913E+00
 -1      3568 5.18229E+01 5.13923E+00 3.36045E+00
 -1      3569 5.18229E+01 3.36045E+00 5.13923E+00
 -1      3570 5.18234E+01 6.63973E+00 4.86095E+00
 -1      3571 5.18234E+01 4.86095E+00 6.63973E+00
 -1      3572 2.75881E+01 5.13893E+00 6.63976E+00
 -1      3573 2.75823E+01 3.35849E+00 4.85723E+00
 -1      3574 3.41761E+01 4.86087E+00 6.63962E+00
 -1      3575 3.41770E+01 6.64062E+00 4.86176E+00
 -1      3576 3.41761E+01 3.36185E+00 5.13613E+00
 -1      3577 2.75831E+01 4.85520E+00 3.34899E+00
 -1      3578 4.18391E+01 1.45805E+00 6.05561E+00
 -1      3579 4.11133E+01 3.20244E+00 6.79756E+00
 -1      3580 4.29183E+01 2.91660E+00 5.00397E+00
 -1      3581 4.18391E+01 3.94439E+00 8.54195E+00
 -1      3582 4.29138E+01 5.00050E+00 7.08120E+00
 -1      3583 3.41770E+01 5.14159E+00 3.35826E+00
 -1      3584 1.08253E+00 6.32905E+00 9.88383E-01
 -1      3585 1.51523E+00 6.67782E+00 2.52459E+00
 -1      3586 9.26593E+01 8.73339E+00 1.26661E+00
 -1      3587 9.41925E+01 8.71192E+00 1.26661E+00
 -1      3588 9.25443E+01 8.45779E+00 3.30575E+00
 -1      3589 9.25443E+01 7.19117E+00 2.03914E+00
 -1      3590 6.87873E+01 3.95958E+00 6.04042E+00
 -1      3591 7.05882E+01 5.75025E+00 5.75025E+00
 -1      3592 6.90612E+01 6.04042E+00 6.04042E+00
 -1      3593 8.08824E+01 1.27357E+00 8.72643E+00
 -1      3594 9.89619E+01 9.09248E+00 6.24538E+00
 -1      3595 9.85106E+01 7.62170E+00 6.66741E+00
 -1      3596 9.31955E+01 8.45779E+00 4.55324E+00
 -1      3597 9.89619E+01 3.70577E+00 9.02678E+00
 -1      3598 9.84700E+01 3.31210E+00 7.50979E+00
 -1      3599 1.55709E+01 5.53120E+00 4.47189E+00
 -1      3600 1.57699E+01 3.84366E+00 4.39327E+00
 -1      3601 1.36297E+01 3.84421E+00 4.39074E+00
 -1      3602 1.02849E+01 8.74359E+00 8.72643E+00
 -1      3603 8.76295E+01 8.30198E+00 4.19802E+00
 -1      3604 1.38193E+01 5.53447E+00 4.46590E+00
 -1      3605 5.77580E+01 8.38794E+00 5.86556E+00
 -1      3606 5.86287E+01 6.72551E+00 5.13099E+00
 -1      3607 5.96942E+01 8.33757E+00 4.26543E+00
 -1      3608 5.99712E+01 8.41512E+00 5.90864E+00
 -1      3609 6.08419E+01 6.75269E+00 5.17407E+00
 -1      3610 5.89057E+01 6.80306E+00 6.77420E+00
 -1      3611 8.61581E+01 5.52441E+00 4.47559E+00
 -1      3612 8.63600E+01 3.84087E+00 4.39600E+00
 -1      3613 8.42248E+01 3.84072E+00 4.39585E+00
 -1      3614 8.63600E+01 5.60400E+00 6.15913E+00
 -1      3615 8.42248E+01 5.60415E+00 6.15928E+00
 -1      3616 1.36268E+01 5.60695E+00 6.15786E+00
 -1      3617 7.05882E+01 4.24975E+00 4.24975E+00
 -1      3618 6.91741E+01 3.95958E+00 3.95958E+00
 -1      3619 5.73129E+01 8.74956E+00 8.72643E+00
 -1      3620 5.87835E+01 8.74956E+00 8.72643E+00
 -1      3621 5.69826E+01 7.13750E+00 8.36556E+00
 -1      3622 5.84933E+01 8.38794E+00 7.09199E+00
 -1      3623 5.70227E+01 8.38794E+00 7.09199E+00
 -1      3624 4.11612E+01 4.24439E+00 5.75561E+00
 -1      3625 4.25788E+01 3.95805E+00 6.04195E+00
 -1      3626 1.03815E+00 9.02678E+00 3.70577E+00
 -1      3627 1.51523E+00 7.50055E+00 3.33132E+00
 -1      3628 1.62040E+01 8.72643E+00 8.74871E+00
 -1      3629 1.47326E+01 8.73591E+00 8.74871E+00
 -1      3630 1.65363E+01 8.38096E+00 7.13032E+00
 -1      3631 1.50374E+01 7.11687E+00 8.38161E+00
 -1      3632 1.65088E+01 7.10739E+00 8.38161E+00
 -1      3633 8.44098E+01 5.53118E+00 4.46882E+00
 -1      3634 1.57701E+01 5.60761E+00 6.15542E+00
 -1      3635 7.09408E+01 4.11063E+00 5.88937E+00
 -1      3636 9.89619E+01 9.88383E-01 6.29339E+00
 -1      3637 9.84700E+01 2.50537E+00 6.68706E+00
 -1      3638 4.08159E+01 4.10946E+00 4.11355E+00
 -1      3639 5.68915E+01 6.68849E+00 5.06056E+00
 -1      3640 4.08168E+01 5.89187E+00 5.88736E+00
 -1      3641 1.32048E+01 8.73591E+00 8.74889E+00
 -1      3642 1.50085E+01 8.38096E+00 7.13050E+00
 -1      3643 1.28941E+01 7.11621E+00 8.38405E+00
 -1      3644 1.28652E+01 8.38030E+00 7.13294E+00
 -1      3645 5.98911E+01 3.84262E+00 4.39428E+00
 -1      3646 5.79571E+01 5.52373E+00 4.47237E+00
 -1      3647 5.77559E+01 3.84249E+00 4.39451E+00
 -1      3648 5.79750E+00 8.73837E+00 1.29177E+00
 -1      3649 7.65513E+00 7.12945E+00 1.64182E+00
 -1      3650 1.54945E+00 3.55289E+00 4.01362E+00
 -1      3651 8.97059E+01 1.27357E+00 8.72643E+00
 -1      3652 9.10680E+01 3.30298E+00 8.45721E+00
 -1      3653 8.88131E+01 2.79488E+00 8.47869E+00
 -1      3654 6.03342E+01 8.74956E+00 8.72643E+00
 -1      3655 5.85333E+01 7.13750E+00 8.36556E+00
 -1      3656 6.07065E+01 8.41512E+00 7.13508E+00
 -1      3657 6.07465E+01 7.16467E+00 8.40864E+00
 -1      3658 9.26167E+01 1.24909E+00 8.75091E+00
 -1      3659 9.41641E+01 1.24909E+00 8.71230E+00
 -1      3660 9.25234E+01 2.02941E+00 7.20812E+00
 -1      3661 9.25234E+01 3.27850E+00 8.45721E+00
 -1      3662 7.81919E+00 6.69948E+00 4.95380E+00
 -1      3663 1.54945E+00 3.49424E+00 2.64660E+00
 -1      3664 2.58564E+00 3.43783E+00 1.52896E+00
 -1      3665 5.79571E+01 8.30055E+00 4.19501E+00
 -1      3666 7.81752E+00 4.93873E+00 6.69863E+00
 -1      3667 9.31960E+01 4.51531E+00 8.45721E+00
 -1      3668 9.32559E+01 5.40095E+00 7.19281E+00
 -1      3669 7.33226E+00 8.73837E+00 1.27357E+00
 -1      3670 7.67582E+00 8.39108E+00 2.91539E+00
 -1      3671 5.81057E+00 1.28649E+00 8.73321E+00
 -1      3672 7.66830E+00 1.63033E+00 7.11986E+00
 -1      3673 5.96942E+01 5.56075E+00 4.54279E+00
 -1      3674 6.08729E+01 2.78634E+00 8.47988E+00
 -1      3675 6.01376E+01 4.02681E+00 8.47988E+00
 -1      3676 5.76206E+01 3.87518E+00 8.58732E+00
 -1      3677 7.35016E+00 1.24431E+00 8.73321E+00
 -1      3678 7.67721E+00 2.87464E+00 8.38665E+00
 -1      3679 8.38235E+01 8.72643E+00 1.27357E+00
 -1      3680 8.52941E+01 8.72643E+00 1.27357E+00
 -1      3681 8.68942E+01 8.30198E+00 2.97159E+00
 -1      3682 8.54237E+01 7.02841E+00 1.69802E+00
 -1      3683 8.54237E+01 8.30198E+00 2.97159E+00
 -1      3684 8.67647E+01 8.72643E+00 1.27357E+00
 -1      3685 8.68942E+01 7.02841E+00 1.69802E+00
 -1      3686 8.36753E+01 7.03518E+00 1.69126E+00
 -1      3687 8.36753E+01 8.30874E+00 2.96482E+00
 -1      3688 5.88235E+01 2.22318E+00 5.27736E+00
 -1      3689 6.01376E+01 1.52194E+00 5.97988E+00
 -1      3690 8.52933E+01 2.22243E+00 5.27757E+00
 -1      3691 8.39792E+01 1.52102E+00 5.97898E+00
 -1      3692 8.52933E+01 4.72243E+00 7.77757E+00
 -1      3693 8.39792E+01 4.02102E+00 8.47898E+00
 -1      3694 1.47023E+01 4.72668E+00 7.77381E+00
 -1      3695 1.33887E+01 4.02883E+00 8.48155E+00
 -1      3696 1.46991E+01 2.22665E+00 5.27794E+00
 -1      3697 1.33855E+01 1.52879E+00 5.98569E+00
 -1      3698 9.62921E+01 1.56950E+00 2.83935E+00
 -1      3699 9.62851E+01 2.85720E+00 1.55127E+00
 -1      3700 9.57186E+01 1.28770E+00 1.28808E+00
 -1      3701 9.41451E+01 1.73517E+00 3.01727E+00
 -1      3702 9.41381E+01 3.02288E+00 1.72919E+00
 -1      3703 1.32305E+01 8.73591E+00 1.26324E+00
 -1      3704 1.48382E+01 7.04046E+00 1.69808E+00
 -1      3705 1.48350E+01 8.30455E+00 2.96131E+00
 -1      3706 1.30834E+01 8.30782E+00 2.95533E+00
 -1      3707 1.30866E+01 7.04373E+00 1.69210E+00
 -1      3708 1.47033E+01 8.73591E+00 1.26629E+00
 -1      3709 1.63079E+01 8.30455E+00 2.96436E+00
 -1      3710 1.61747E+01 8.72643E+00 1.26629E+00
 -1      3711 1.63096E+01 7.03099E+00 1.69808E+00
 -1      3712 2.05882E+01 8.72643E+00 8.72643E+00
 -1      3713 2.20589E+01 6.97666E+00 8.25022E+00
 -1      3714 2.20588E+01 8.72643E+00 8.72643E+00
 -1      3715 2.20589E+01 8.25022E+00 6.97666E+00
 -1      3716 7.94118E+01 1.27357E+00 8.72643E+00
 -1      3717 7.79412E+01 1.74975E+00 6.97668E+00
 -1      3718 7.79412E+01 1.27357E+00 8.72643E+00
 -1      3719 7.79412E+01 3.02332E+00 8.25025E+00
 -1      3720 7.94118E+01 8.72643E+00 1.27357E+00
 -1      3721 7.79412E+01 8.25025E+00 3.02332E+00
 -1      3722 7.64706E+01 1.27357E+00 8.72643E+00
 -1      3723 7.79412E+01 8.72643E+00 1.27357E+00
 -1      3724 7.79412E+01 6.97668E+00 1.74975E+00
 -1      3725 7.64706E+01 8.72643E+00 1.27357E+00
 -1      3726 6.47059E+01 8.72643E+00 8.72643E+00
 -1      3727 6.61765E+01 6.97668E+00 8.25025E+00
 -1      3728 6.61765E+01 8.72643E+00 8.72643E+00
 -1      3729 6.61765E+01 8.25025E+00 6.97668E+00
 -1      3730 6.47059E+01 1.27357E+00 1.27357E+00
 -1      3731 6.61765E+01 1.74975E+00 3.02332E+00
 -1      3732 6.61765E+01 1.27357E+00 1.27357E+00
 -1      3733 6.61765E+01 3.02332E+00 1.74975E+00
 -1      3734 2.35294E+01 8.72643E+00 8.72643E+00
 -1      3735 3.38235E+01 8.72643E+00 8.72643E+00
 -1      3736 3.52941E+01 8.72643E+00 8.72643E+00
 -1      3737 3.38235E+01 6.97668E+00 8.25025E+00
 -1      3738 3.38235E+01 8.25025E+00 6.97668E+00
 -1      3739 5.29412E+01 8.72643E+00 8.72643E+00
 -1      3740 5.14708E+01 8.25034E+00 6.97678E+00
 -1      3741 5.14706E+01 8.72643E+00 8.72643E+00
 -1      3742 5.14708E+01 6.97678E+00 8.25034E+00
 -1      3743 5.29412E+01 1.26914E+00 1.27357E+00
 -1      3744 5.14704E+01 1.74984E+00 3.02341E+00
 -1      3745 2.64706E+01 1.27357E+00 8.72643E+00
 -1      3746 2.79408E+01 1.74959E+00 6.97685E+00
 -1      3747 2.79412E+01 1.27357E+00 8.72643E+00
 -1      3748 2.79408E+01 3.02315E+00 8.25041E+00
 -1      3749 5.14706E+01 1.27357E+00 1.27357E+00
 -1      3750 5.14704E+01 3.02341E+00 1.74984E+00
 -1      3751 2.35294E+01 1.26421E+00 1.27357E+00
 -1      3752 2.20588E+01 1.75070E+00 3.02130E+00
 -1      3753 2.20588E+01 1.26571E+00 1.27357E+00
 -1      3754 2.20588E+01 3.01641E+00 1.74773E+00
 -1      3755 2.05882E+01 1.26571E+00 1.26916E+00
 -1      3756 5.00000E+01 1.27357E+00 1.27357E+00
 -1      3757 5.00000E+01 8.72643E+00 8.72643E+00
 -1      3758 3.52941E+01 1.27357E+00 1.27357E+00
 -1      3759 3.38235E+01 1.75122E+00 3.02032E+00
 -1      3760 2.79387E+01 8.75611E+00 1.27357E+00
 -1      3761 2.64681E+01 8.75611E+00 1.27357E+00
 -1      3762 2.79392E+01 7.00239E+00 1.74218E+00
 -1      3763 2.79416E+01 8.24629E+00 3.01574E+00
 -1      3764 3.82329E+01 1.27357E+00 8.75228E+00
 -1      3765 3.97010E+01 1.24772E+00 8.75228E+00
 -1      3766 3.96984E+01 1.74439E+00 7.00788E+00
 -1      3767 3.96984E+01 2.99212E+00 8.25561E+00
 -1      3768 3.38169E+01 1.26186E+00 1.27357E+00
 -1      3769 3.38169E+01 3.01308E+00 1.74676E+00
 -1      3770 4.11746E+01 8.74613E+00 1.26971E+00
 -1      3771 3.97056E+01 6.99803E+00 1.74374E+00
 -1      3772 3.82342E+01 8.74871E+00 1.26507E+00
 -1      3773 3.96997E+01 8.25190E+00 3.00881E+00
 -1      3774 5.77580E+01 5.61113E+00 6.14292E+00
 -1      3775 5.99712E+01 5.63830E+00 6.18600E+00
 -1      3776 3.97095E+01 8.74613E+00 1.26507E+00
 -1      3777 7.24114E+01 2.88419E+00 8.38937E+00
 -1      3778 7.24114E+01 1.61063E+00 7.11581E+00
 -1      3779 7.20588E+01 1.27357E+00 8.72643E+00
 -1      3780 7.02579E+01 2.73314E+00 8.54042E+00
 -1      3781 7.02579E+01 1.45958E+00 7.26686E+00
 -1      3782 4.41144E+01 8.75379E+00 1.26122E+00
 -1      3783 4.55754E+01 8.24807E+00 3.00780E+00
 -1      3784 9.11826E+01 8.73339E+00 1.27357E+00
 -1      3785 4.55829E+01 8.75228E+00 1.26122E+00
 -1      3786 4.55856E+01 7.00035E+00 1.74659E+00
 -1      3787 5.79305E+00 8.73837E+00 8.71188E+00
 -1      3788 7.47563E+00 7.04678E+00 8.31198E+00
 -1      3789 3.68939E+00 2.81559E+00 1.52896E+00
 -1      3790 3.69115E+00 1.52910E+00 2.82073E+00
 -1      3791 4.28165E+00 1.28649E+00 1.29177E+00
 -1      3792 5.85280E+00 3.02243E+00 1.72507E+00
 -1      3793 5.85457E+00 1.73594E+00 3.01684E+00
 -1      3794 3.93553E+01 7.12681E+00 8.38736E+00
 -1      3795 3.93539E+01 8.39187E+00 7.13963E+00
 -1      3796 3.97023E+01 8.73493E+00 8.75228E+00
 -1      3797 4.15001E+01 7.27739E+00 8.53925E+00
 -1      3798 4.14988E+01 8.54246E+00 7.29152E+00
 -1      3799 3.93633E+01 2.87068E+00 1.61355E+00
 -1      3800 3.93544E+01 1.60946E+00 2.87862E+00
 -1      3801 3.97126E+01 1.26122E+00 1.26507E+00
 -1      3802 4.15136E+01 2.71977E+00 1.46202E+00
 -1      3803 4.15047E+01 1.45856E+00 2.72709E+00
 -1      3804 9.11613E+01 1.27357E+00 8.75091E+00
 -1      3805 7.20588E+01 3.02332E+00 1.74975E+00
 -1      3806 7.20588E+01 1.74975E+00 3.02332E+00
 -1      3807 7.20588E+01 1.27357E+00 1.27357E+00
 -1      3808 7.38597E+01 2.73314E+00 1.45958E+00
 -1      3809 7.38597E+01 1.45958E+00 2.73314E+00
 -1      3810 7.38597E+01 3.20933E+00 3.20933E+00
 -1      3811 7.20588E+01 6.97668E+00 8.25025E+00
 -1      3812 7.20588E+01 8.25025E+00 6.97668E+00
 -1      3813 7.20588E+01 8.72643E+00 8.72643E+00
 -1      3814 7.38597E+01 7.26686E+00 8.54042E+00
 -1      3815 7.38597E+01 8.54042E+00 7.26686E+00
 -1      3816 7.38597E+01 6.79067E+00 6.79067E+00
 -1      3817 5.70206E+01 2.88501E+00 1.61714E+00
 -1      3818 5.98911E+01 1.61944E+00 4.11692E+00
 -1      3819 5.77559E+01 1.61930E+00 4.11714E+00
 -1      3820 5.84912E+01 1.61930E+00 2.89071E+00
 -1      3821 5.70206E+01 1.61930E+00 2.89071E+00
 -1      3822 7.32642E+00 8.73837E+00 8.73321E+00
 -1      3823 7.49047E+00 8.30840E+00 7.04519E+00
 -1      3824 2.97426E+01 1.45912E+00 7.26731E+00
 -1      3825 2.97426E+01 2.73269E+00 8.54088E+00
 -1      3826 2.97422E+01 3.20871E+00 6.79129E+00
 -1      3827 3.20225E+01 8.54042E+00 7.26686E+00
 -1      3828 3.20225E+01 7.26686E+00 8.54042E+00
 -1      3829 3.20225E+01 6.79067E+00 6.79067E+00
 -1      3830 8.63608E+01 1.61844E+00 4.11844E+00
 -1      3831 8.42257E+01 1.61828E+00 4.11828E+00
 -1      3832 8.63608E+01 5.88156E+00 8.38156E+00
 -1      3833 8.42257E+01 5.88172E+00 8.38172E+00
 -1      3834 1.65087E+01 2.89058E+00 1.61947E+00
 -1      3835 1.43684E+01 2.89113E+00 1.61694E+00
 -1      3836 1.57700E+01 1.61701E+00 4.12360E+00
 -1      3837 1.65069E+01 1.61701E+00 2.88575E+00
 -1      3838 1.36297E+01 1.61757E+00 4.12107E+00
 -1      3839 7.05882E+01 1.27357E+00 8.72643E+00
 -1      3840 6.91176E+01 1.27357E+00 8.72643E+00
 -1      3841 6.87873E+01 2.73314E+00 8.54042E+00
 -1      3842 6.87873E+01 1.45958E+00 7.26686E+00
 -1      3843 7.50000E+01 8.72643E+00 8.72643E+00
 -1      3844 7.35294E+01 8.72643E+00 8.72643E+00
 -1      3845 7.53303E+01 8.54042E+00 7.26686E+00
 -1      3846 7.53303E+01 7.26686E+00 8.54042E+00
 -1      3847 7.35294E+01 1.27357E+00 1.27357E+00
 -1      3848 7.53303E+01 2.73314E+00 1.45958E+00
 -1      3849 7.50000E+01 1.27357E+00 1.27357E+00
 -1      3850 7.53303E+01 1.45958E+00 2.73314E+00
 -1      3851 3.08824E+01 8.72643E+00 8.72643E+00
 -1      3852 3.23529E+01 8.72643E+00 8.72643E+00
 -1      3853 3.05519E+01 8.54042E+00 7.26686E+00
 -1      3854 3.05519E+01 7.26686E+00 8.54042E+00
 -1      3855 2.94118E+01 1.27357E+00 8.72643E+00
 -1      3856 3.08824E+01 1.27357E+00 8.72643E+00
 -1      3857 3.12132E+01 1.45912E+00 7.26731E+00
 -1      3858 3.12132E+01 2.73269E+00 8.54088E+00
 -1      3859 2.97414E+01 8.53812E+00 2.72983E+00
 -1      3860 2.97390E+01 7.29423E+00 1.45626E+00
 -1      3861 2.97419E+01 6.78441E+00 3.19844E+00
 -1      3862 3.20180E+01 1.45926E+00 2.73379E+00
 -1      3863 3.20114E+01 2.72112E+00 1.46022E+00
 -1      3864 3.20180E+01 3.21048E+00 3.20698E+00
 -1      3865 2.94072E+01 8.75428E+00 1.27357E+00
 -1      3866 3.12075E+01 7.29240E+00 1.45626E+00
 -1      3867 3.23463E+01 1.26186E+00 1.27357E+00
 -1      3868 3.05475E+01 1.45926E+00 2.73379E+00
 -1      3869 4.73814E+01 8.54042E+00 2.72079E+00
 -1      3870 4.73916E+01 7.29270E+00 1.45958E+00
 -1      3871 4.73841E+01 6.78849E+00 3.20617E+00
 -1      3872 4.85294E+01 8.72643E+00 1.27357E+00
 -1      3873 4.70510E+01 8.72643E+00 1.26122E+00
 -1      3874 4.88598E+01 7.26686E+00 1.45958E+00
 -1      3875 4.88598E+01 8.54042E+00 2.73314E+00
 -1      3876 3.08778E+01 8.75428E+00 1.27357E+00
 -1      3877 3.12120E+01 8.53812E+00 2.72983E+00
 -1      3878 4.55784E+01 1.74920E+00 6.99693E+00
 -1      3879 4.55784E+01 3.00307E+00 8.25080E+00
 -1      3880 4.55787E+01 1.25387E+00 8.74613E+00
 -1      3881 4.73839E+01 1.45905E+00 7.28708E+00
 -1      3882 4.73839E+01 2.71292E+00 8.54095E+00
 -1      3883 4.73836E+01 3.20824E+00 6.79176E+00
 -1      3884 4.11708E+01 8.73493E+00 8.75379E+00
 -1      3885 4.29673E+01 8.54246E+00 7.29304E+00
 -1      3886 1.57733E+01 5.88099E+00 8.38161E+00
 -1      3887 5.77580E+01 5.89281E+00 8.36556E+00
 -1      3888 5.99712E+01 5.91998E+00 8.40864E+00
 -1      3889 4.26358E+01 8.73029E+00 8.75379E+00
 -1      3890 4.29652E+01 7.27274E+00 8.53925E+00
 -1      3891 4.11776E+01 1.26122E+00 1.26971E+00
 -1      3892 4.29697E+01 1.45856E+00 2.73173E+00
 -1      3893 4.85286E+01 1.26388E+00 8.73612E+00
 -1      3894 4.70536E+01 1.25387E+00 8.73612E+00
 -1      3895 4.88588E+01 1.45905E+00 7.27708E+00
 -1      3896 4.88588E+01 2.72292E+00 8.54095E+00
 -1      3897 3.08746E+01 1.26645E+00 1.27357E+00
 -1      3898 3.05397E+01 2.72571E+00 1.46022E+00
 -1      3899 7.24114E+01 6.63962E+00 4.86087E+00
 -1      3900 7.27941E+01 8.25025E+00 5.75025E+00
 -1      3901 7.27941E+01 5.75025E+00 8.25025E+00
 -1      3902 7.27941E+01 1.74975E+00 4.24975E+00
 -1      3903 7.24114E+01 5.13913E+00 3.36038E+00
 -1      3904 7.27941E+01 4.24975E+00 1.74975E+00
 -1      3905 1.36300E+01 5.88034E+00 8.38405E+00
 -1      3906 5.88636E+01 8.74956E+00 1.27357E+00
 -1      3907 5.73129E+01 8.74956E+00 1.27357E+00
 -1      3908 5.71817E+01 7.05010E+00 1.69501E+00
 -1      3909 5.72218E+01 8.30055E+00 2.96857E+00
 -1      3910 5.87324E+01 7.05010E+00 1.69501E+00
 -1      3911 6.43533E+01 1.61063E+00 7.11581E+00
 -1      3912 6.23435E+01 1.52194E+00 7.20631E+00
 -1      3913 1.70449E+01 5.80454E+00 1.69808E+00
 -1      3914 1.81098E+01 6.84326E+00 3.15348E+00
 -1      3915 5.32938E+01 1.61061E+00 7.11582E+00
 -1      3916 5.54148E+01 1.37032E+00 7.31375E+00
 -1      3917 4.59361E+01 4.85592E+00 3.35767E+00
 -1      3918 4.63184E+01 5.74806E+00 1.74659E+00
 -1      3919 6.43533E+01 2.88419E+00 8.38937E+00
 -1      3920 6.23435E+01 2.79551E+00 8.47988E+00
 -1      3921 4.59318E+01 5.14055E+00 6.63906E+00
 -1      3922 4.63153E+01 4.24457E+00 8.25080E+00
 -1      3923 5.32938E+01 2.87975E+00 8.38939E+00
 -1      3924 5.54148E+01 2.63945E+00 8.58732E+00
 -1      3925 4.26471E+01 1.26971E+00 1.26971E+00
 -1      3926 4.29830E+01 2.72827E+00 1.46202E+00
 -1      3927 4.59318E+01 6.63943E+00 5.13484E+00
 -1      3928 4.63153E+01 8.24807E+00 4.25121E+00
 -1      3929 1.70449E+01 8.30455E+00 4.19807E+00
 -1      3930 6.11648E+01 5.83756E+00 1.76543E+00
 -1      3931 6.22304E+01 6.87799E+00 3.22500E+00
 -1      3932 4.59361E+01 3.35705E+00 4.86188E+00
 -1      3933 4.63153E+01 1.74920E+00 5.75543E+00
 -1      3934 5.81642E+00 1.28649E+00 1.27357E+00
 -1      3935 7.38933E+00 1.73594E+00 2.99863E+00
 -1      3936 9.41855E+01 1.28770E+00 1.26661E+00
 -1      3937 9.26120E+01 1.73517E+00 2.99580E+00
 -1      3938 7.35600E+00 1.24431E+00 1.27357E+00
 -1      3939 7.39239E+00 2.98025E+00 1.72507E+00
 -1      3940 9.14474E+00 1.63033E+00 7.11308E+00
 -1      3941 1.11830E+01 1.52879E+00 7.20799E+00
 -1      3942 9.26380E+01 1.24909E+00 1.26661E+00
 -1      3943 9.25907E+01 2.98426E+00 1.72919E+00
 -1      3944 3.04767E+01 8.53812E+00 3.95626E+00
 -1      3945 2.86769E+01 8.24629E+00 4.24218E+00
 -1      3946 2.90818E+01 6.78671E+00 5.28260E+00
 -1      3947 2.98167E+01 8.54042E+00 6.04042E+00
 -1      3948 3.08816E+01 7.07854E+00 4.99669E+00
 -1      3949 8.08824E+01 1.27357E+00 1.27357E+00
 -1      3950 8.08824E+01 8.72643E+00 8.72643E+00
 -1      3951 3.19473E+01 8.53812E+00 3.95626E+00
 -1      3952 3.26826E+01 6.78837E+00 4.70651E+00
 -1      3953 3.30882E+01 8.25025E+00 5.75025E+00
 -1      3954 3.12872E+01 8.54042E+00 6.04042E+00
 -1      3955 3.12828E+01 1.45926E+00 3.96022E+00
 -1      3956 3.30882E+01 1.75122E+00 4.24676E+00
 -1      3957 3.26838E+01 3.21034E+00 5.28764E+00
 -1      3958 3.19485E+01 1.45912E+00 6.04088E+00
 -1      3959 3.08783E+01 2.91838E+00 5.00110E+00
 -1      3960 2.86761E+01 4.24959E+00 8.25041E+00
 -1      3961 2.90809E+01 5.29001E+00 6.79084E+00
 -1      3962 2.98167E+01 6.04042E+00 8.54042E+00
 -1      3963 3.04779E+01 3.95912E+00 8.54088E+00
 -1      3964 3.08828E+01 4.99954E+00 7.08130E+00
 -1      3965 3.12872E+01 6.04042E+00 8.54042E+00
 -1      3966 3.30882E+01 5.75025E+00 8.25025E+00
 -1      3967 3.19485E+01 3.95912E+00 8.54088E+00
 -1      3968 3.26838E+01 4.70937E+00 6.79113E+00
 -1      3969 2.98122E+01 1.45926E+00 3.96022E+00
 -1      3970 2.90765E+01 3.20884E+00 4.71064E+00
 -1      3971 2.86761E+01 1.74959E+00 5.75041E+00
 -1      3972 3.04779E+01 1.45912E+00 6.04088E+00
 -1      3973 9.13869E+00 2.88918E+00 8.38665E+00
 -1      3974 1.11770E+01 2.78764E+00 8.48155E+00
 -1      3975 3.30826E+01 4.26142E+00 1.74676E+00
 -1      3976 3.26826E+01 5.28934E+00 3.20302E+00
 -1      3977 3.19417E+01 6.04832E+00 1.45626E+00
 -1      3978 3.12771E+01 3.96946E+00 1.46022E+00
 -1      3979 3.08771E+01 4.99738E+00 2.91649E+00
 -1      3980 5.76206E+01 1.37032E+00 6.08732E+00
 -1      3981 8.66072E+01 1.52131E+00 5.97869E+00
 -1      3982 8.66072E+01 4.02131E+00 8.47869E+00
 -1      3983 8.76740E+01 4.90288E+00 6.86025E+00
 -1      3984 3.04621E+01 6.05134E+00 1.45626E+00
 -1      3985 2.86622E+01 5.75950E+00 1.74218E+00
 -1      3986 2.97975E+01 3.97247E+00 1.46022E+00
 -1      3987 2.90773E+01 4.70555E+00 3.20240E+00
 -1      3988 9.11613E+01 1.24909E+00 1.27357E+00
 -1      3989 8.81966E+00 1.24431E+00 1.26956E+00
 -1      3990 8.82353E+01 8.72643E+00 1.27357E+00
 -1      3991 1.60114E+01 1.52846E+00 5.98324E+00
 -1      3992 1.76470E+01 8.72643E+00 1.26916E+00
 -1      3993 1.77801E+01 8.30455E+00 2.96724E+00
 -1      3994 1.91053E+01 8.74773E+00 1.26916E+00
 -1      3995 1.77680E+01 7.05228E+00 1.69808E+00
 -1      3996 8.23529E+01 8.72643E+00 1.27357E+00
 -1      3997 6.11648E+01 8.33757E+00 4.26543E+00
 -1      3998 9.32554E+01 6.82932E+00 5.77473E+00
 -1      3999 1.60146E+01 4.02849E+00 8.47911E+00
 -1      4000 6.32353E+01 8.72643E+00 1.27357E+00
 -1      4001 6.19001E+01 8.33757E+00 3.03899E+00
 -1      4002 6.19001E+01 7.06400E+00 1.76543E+00
 -1      4003 6.35656E+01 7.26686E+00 1.45958E+00
 -1      4004 6.35656E+01 8.54042E+00 2.73314E+00
 -1      4005 1.17514E+01 8.74359E+00 1.26324E+00
 -1      4006 1.77802E+01 5.80455E+00 4.19808E+00
 -1      4007 1.54945E+00 4.52930E+00 3.56075E+00
 -1      4008 6.87349E+01 6.06121E+00 1.43879E+00
 -1      4009 6.83521E+01 6.95059E+00 3.04941E+00
 -1      4010 6.72643E+01 5.88937E+00 1.61063E+00
 -1      4011 6.84388E+01 3.95958E+00 1.45958E+00
 -1      4012 6.80561E+01 4.84895E+00 3.07020E+00
 -1      4013 6.95266E+01 5.02079E+00 2.89836E+00
 -1      4014 9.63664E+01 8.52922E+00 7.22368E+00
 -1      4015 9.48966E+01 8.37153E+00 7.44789E+00
 -1      4016 7.35294E+01 5.75025E+00 5.75025E+00
 -1      4017 7.35294E+01 4.24975E+00 4.24975E+00
 -1      4018 6.19001E+01 5.83757E+00 4.26543E+00
 -1      4019 4.70537E+01 4.24965E+00 5.75126E+00
 -1      4020 4.70537E+01 5.74853E+00 4.24705E+00
 -1      4021 6.18048E+01 8.74956E+00 1.27357E+00
 -1      4022 6.04695E+01 7.08713E+00 1.76543E+00
 -1      4023 1.94472E+01 8.53871E+00 2.72456E+00
 -1      4024 1.94351E+01 7.28644E+00 1.45540E+00
 -1      4025 6.72643E+01 8.38937E+00 4.11063E+00
 -1      4026 6.87349E+01 8.56121E+00 3.93879E+00
 -1      4027 6.83259E+01 8.54042E+00 6.04042E+00
 -1      4028 6.94137E+01 7.10164E+00 4.97921E+00
 -1      4029 6.79431E+01 6.92980E+00 5.15105E+00
 -1      4030 6.03342E+01 8.74956E+00 1.27357E+00
 -1      4031 6.04295E+01 8.33757E+00 3.03899E+00
 -1      4032 8.78314E+01 5.88156E+00 8.38156E+00
 -1      4033 5.58423E+01 8.74956E+00 1.27357E+00
 -1      4034 8.80842E+00 8.74359E+00 8.73321E+00
 -1      4035 7.02055E+01 8.56121E+00 3.93879E+00
 -1      4036 7.09408E+01 6.81146E+00 4.68904E+00
 -1      4037 7.13235E+01 8.25025E+00 5.75025E+00
 -1      4038 6.97965E+01 8.54042E+00 6.04042E+00
 -1      4039 3.12120E+01 6.03730E+00 3.95708E+00
 -1      4040 2.94122E+01 5.74547E+00 4.24299E+00
 -1      4041 3.05519E+01 6.03961E+00 6.04124E+00
 -1      4042 3.05475E+01 3.95844E+00 3.96104E+00
 -1      4043 3.23529E+01 4.25040E+00 4.24757E+00
 -1      4044 3.12132E+01 3.95831E+00 6.04169E+00
 -1      4045 3.23529E+01 5.74943E+00 5.75106E+00
 -1      4046 2.94113E+01 4.24877E+00 5.75123E+00
 -1      4047 6.73167E+01 3.20933E+00 5.29017E+00
 -1      4048 6.80520E+01 1.45958E+00 6.04042E+00
 -1      4049 6.69118E+01 1.74975E+00 4.24975E+00
 -1      4050 6.77035E+01 3.20933E+00 3.20933E+00
 -1      4051 6.84388E+01 1.45958E+00 3.95958E+00
 -1      4052 5.73529E+01 1.26571E+00 1.27357E+00
 -1      4053 6.02941E+01 1.26440E+00 8.72643E+00
 -1      4054 4.37015E+01 6.03174E+00 8.53925E+00
 -1      4055 4.44373E+01 5.29165E+00 6.79005E+00
 -1      4056 4.48422E+01 4.23848E+00 8.25080E+00
 -1      4057 4.33187E+01 3.94733E+00 8.54195E+00
 -1      4058 4.40545E+01 3.20724E+00 6.79276E+00
 -1      4059 4.44419E+01 3.20775E+00 4.71282E+00
 -1      4060 4.37060E+01 1.45856E+00 3.97273E+00
 -1      4061 4.48422E+01 1.74920E+00 5.76152E+00
 -1      4062 4.33187E+01 1.45805E+00 6.05267E+00
 -1      4063 1.61747E+01 1.27357E+00 1.26629E+00
 -1      4064 7.02055E+01 6.06121E+00 1.43879E+00
 -1      4065 6.99094E+01 3.95958E+00 1.45958E+00
 -1      4066 7.13235E+01 4.24975E+00 1.74975E+00
 -1      4067 7.09408E+01 5.31096E+00 3.18854E+00
 -1      4068 6.65290E+01 5.13913E+00 3.36038E+00
 -1      4069 6.69118E+01 4.24975E+00 1.74975E+00
 -1      4070 5.89589E+01 8.33757E+00 3.03899E+00
 -1      4071 6.80520E+01 3.95958E+00 8.54042E+00
 -1      4072 6.73167E+01 4.70983E+00 6.79067E+00
 -1      4073 6.69118E+01 5.75025E+00 8.25025E+00
 -1      4074 6.83259E+01 6.04042E+00 8.54042E+00
 -1      4075 6.75906E+01 6.79067E+00 6.79067E+00
 -1      4076 7.05318E+01 7.26686E+00 8.54042E+00
 -1      4077 7.05318E+01 8.54042E+00 7.26686E+00
 -1      4078 6.97965E+01 8.54042E+00 8.54042E+00
 -1      4079 6.77035E+01 1.45958E+00 2.73314E+00
 -1      4080 6.77035E+01 2.73314E+00 1.45958E+00
 -1      4081 6.84388E+01 1.45958E+00 1.45958E+00
 -1      4082 8.85667E+01 8.38156E+00 7.10800E+00
 -1      4083 9.04211E+01 8.54010E+00 7.26653E+00
 -1      4084 8.85667E+01 7.10800E+00 8.38156E+00
 -1      4085 9.04211E+01 7.26653E+00 8.54010E+00
 -1      4086 6.90612E+01 8.54042E+00 7.26686E+00
 -1      4087 6.90612E+01 7.26686E+00 8.54042E+00
 -1      4088 6.91741E+01 1.45958E+00 2.73314E+00
 -1      4089 6.91741E+01 2.73314E+00 1.45958E+00
 -1      4090 6.13617E+01 1.61944E+00 1.61692E+00
 -1      4091 8.27551E+01 1.61828E+00 1.61828E+00
 -1      4092 8.27551E+01 8.38172E+00 8.38172E+00
 -1      4093 5.62853E+01 1.61930E+00 1.61714E+00
 -1      4094 8.78314E+01 1.61844E+00 1.61844E+00
 -1      4095 8.97059E+01 8.72643E+00 8.72643E+00
 -1      4096 8.78314E+01 8.38156E+00 8.38156E+00
 -1      4097 1.72439E+01 1.61701E+00 1.61947E+00
 -1      4098 4.40548E+01 1.45805E+00 7.28808E+00
 -1      4099 4.40548E+01 2.71192E+00 8.54195E+00
 -1      4100 4.33243E+01 1.45805E+00 8.54195E+00
 -1      4101 2.83238E+01 8.38935E+00 5.88935E+00
 -1      4102 2.87287E+01 6.92977E+00 6.92977E+00
 -1      4103 4.25844E+01 1.45805E+00 7.29575E+00
 -1      4104 4.25844E+01 2.70425E+00 8.54195E+00
 -1      4105 1.72441E+01 8.38096E+00 8.38161E+00
 -1      4106 1.21625E+01 1.61757E+00 1.61694E+00
 -1      4107 2.16767E+01 8.39001E+00 4.11116E+00
 -1      4108 2.12711E+01 6.92872E+00 3.06656E+00
 -1      4109 6.57937E+01 5.88937E+00 1.61063E+00
 -1      4110 6.53887E+01 6.92980E+00 3.07020E+00
 -1      4111 7.75584E+01 8.38937E+00 5.88937E+00
 -1      4112 7.71535E+01 6.92980E+00 6.92980E+00
 -1      4113 7.75584E+01 5.88937E+00 8.38937E+00
 -1      4114 7.75584E+01 1.61063E+00 4.11063E+00
 -1      4115 7.71535E+01 3.07020E+00 3.07020E+00
 -1      4116 7.75584E+01 4.11063E+00 1.61063E+00
 -1      4117 6.65592E+01 1.61063E+00 5.88937E+00
 -1      4118 6.69642E+01 3.07020E+00 6.92980E+00
 -1      4119 6.57937E+01 8.38937E+00 4.11063E+00
 -1      4120 6.65290E+01 6.63962E+00 4.86087E+00
 -1      4121 6.65592E+01 4.11063E+00 8.38937E+00
 -1      4122 3.34408E+01 1.61063E+00 5.88937E+00
 -1      4123 3.30363E+01 3.06975E+00 6.93025E+00
 -1      4124 3.34417E+01 8.39037E+00 4.11151E+00
 -1      4125 3.30361E+01 6.92849E+00 3.06777E+00
 -1      4126 6.94702E+01 6.06121E+00 3.93879E+00
 -1      4127 6.79996E+01 5.88937E+00 4.11063E+00
 -1      4128 2.83180E+01 1.60891E+00 4.10681E+00
 -1      4129 2.87184E+01 3.06817E+00 3.06704E+00
 -1      4130 2.83238E+01 5.88935E+00 8.38935E+00
 -1      4131 3.34408E+01 4.11063E+00 8.38937E+00
 -1      4132 7.16761E+01 8.38937E+00 4.11063E+00
 -1      4133 7.12933E+01 6.95059E+00 3.04941E+00
 -1      4134 7.16761E+01 5.88937E+00 1.61063E+00
 -1      4135 5.10879E+01 5.88939E+00 1.61061E+00
 -1      4136 5.06829E+01 6.92981E+00 3.07019E+00
 -1      4137 5.10879E+01 4.11061E+00 8.38939E+00
 -1      4138 5.06824E+01 3.06966E+00 6.93034E+00
 -1      4139 8.41111E+00 8.39108E+00 1.64182E+00
 -1      4140 5.10879E+01 8.38939E+00 4.11061E+00
 -1      4141 5.10879E+01 1.61061E+00 5.88939E+00
 -1      4142 1.02881E+01 1.25885E+00 8.72643E+00
 -1      4143 8.40944E+00 1.63033E+00 8.38665E+00
 -1      4144 2.16767E+01 5.89488E+00 1.61116E+00
 -1      4145 3.86211E+01 8.39187E+00 8.38736E+00
 -1      4146 7.90290E+01 1.61063E+00 1.61063E+00
 -1      4147 7.90290E+01 8.38937E+00 8.38937E+00
 -1      4148 7.31467E+01 8.38937E+00 1.61063E+00
 -1      4149 6.91176E+01 8.72643E+00 1.27357E+00
 -1      4150 6.72643E+01 8.38937E+00 1.61063E+00
 -1      4151 6.79996E+01 8.38937E+00 2.88419E+00
 -1      4152 6.79996E+01 7.11581E+00 1.61063E+00
 -1      4153 7.31467E+01 1.61063E+00 8.38937E+00
 -1      4154 6.32353E+01 1.27357E+00 8.72643E+00
 -1      4155 6.50886E+01 1.61063E+00 8.38937E+00
 -1      4156 2.31467E+01 1.61061E+00 8.38939E+00
 -1      4157 5.25585E+01 8.38939E+00 1.61061E+00
 -1      4158 2.68533E+01 8.38935E+00 8.38935E+00
 -1      4159 3.49114E+01 1.61063E+00 8.38937E+00
 -1      4160 4.51959E+01 5.88064E+00 8.38825E+00
 -1      4161 4.47910E+01 6.93381E+00 6.92750E+00
 -1      4162 5.44118E+01 1.26914E+00 8.72643E+00
 -1      4163 5.25585E+01 1.61061E+00 8.38939E+00
 -1      4164 4.26379E+01 1.24621E+00 8.75379E+00
 -1      4165 3.34361E+01 5.90058E+00 1.61151E+00
 -1      4166 3.86202E+01 1.60946E+00 1.61355E+00
 -1      4167 4.51959E+01 8.39136E+00 5.89896E+00
 -1      4168 4.52002E+01 1.60785E+00 4.12179E+00
 -1      4169 4.47999E+01 3.06641E+00 3.07310E+00
 -1      4170 1.21596E+01 8.38030E+00 8.38405E+00
 -1      4171 2.83033E+01 4.12212E+00 1.60681E+00
 -1      4172 4.52205E+01 4.12150E+00 1.61108E+00
 -1      4173 3.49123E+01 8.39037E+00 1.61151E+00
 -1      4174 2.31473E+01 8.39001E+00 1.61116E+00
 -1      4175 4.66765E+01 1.60785E+00 1.61108E+00
 -1      4176 2.68474E+01 1.60891E+00 1.60681E+00
 -1      4177 4.66721E+01 8.39136E+00 8.38825E+00
 -1      4178 7.82937E+01 1.61063E+00 2.88419E+00
 -1      4179 7.82937E+01 2.88419E+00 1.61063E+00
 -1      4180 7.82937E+01 7.11581E+00 8.38937E+00
 -1      4181 6.65290E+01 8.38937E+00 2.88419E+00
 -1      4182 7.82937E+01 8.38937E+00 7.11581E+00
 -1      4183 6.65290E+01 7.11581E+00 1.61063E+00
 -1      4184 7.24114E+01 7.11581E+00 1.61063E+00
 -1      4185 7.24114E+01 8.38937E+00 2.88419E+00
 -1      4186 6.58239E+01 1.61063E+00 7.11581E+00
 -1      4187 6.58239E+01 2.88419E+00 8.38937E+00
 -1      4188 5.18232E+01 8.38939E+00 2.88418E+00
 -1      4189 5.18232E+01 7.11582E+00 1.61061E+00
 -1      4190 2.75885E+01 8.38935E+00 7.11578E+00
 -1      4191 2.75885E+01 7.11578E+00 8.38935E+00
 -1      4192 3.41761E+01 2.88419E+00 8.38937E+00
 -1      4193 3.41761E+01 1.61063E+00 7.11581E+00
 -1      4194 5.18232E+01 1.61061E+00 7.11582E+00
 -1      4195 2.24120E+01 8.39001E+00 2.88472E+00
 -1      4196 3.41770E+01 8.39037E+00 2.88507E+00
 -1      4197 5.18232E+01 2.88418E+00 8.38939E+00
 -1      4198 4.59423E+01 2.87292E+00 1.61108E+00
 -1      4199 6.91176E+01 8.72643E+00 8.72643E+00
 -1      4200 6.91176E+01 1.27357E+00 1.27357E+00
 -1      4201 6.69118E+01 8.25025E+00 5.75025E+00
 -1      4202 4.59321E+01 8.39136E+00 7.13438E+00
 -1      4203 2.75827E+01 1.60891E+00 2.88038E+00
 -1      4204 3.41723E+01 7.13650E+00 1.61151E+00
 -1      4205 2.75827E+01 2.87462E+00 1.60681E+00
 -1      4206 2.24053E+01 7.14072E+00 1.61116E+00
 -1      4207 4.59291E+01 7.13014E+00 8.38825E+00
 -1      4208 4.59334E+01 1.60785E+00 2.87229E+00
 -1      4209 2.79412E+01 4.99587E+00 4.99259E+00
 -1      4210 2.90533E+01 4.10809E+00 4.10763E+00
 -1      4211 2.20588E+01 5.00092E+00 4.99796E+00
 -1      4212 7.79412E+01 5.00000E+00 5.00000E+00
 -1      4213 7.68231E+01 5.88937E+00 5.88937E+00
 -1      4214 7.68231E+01 4.11063E+00 4.11063E+00
 -1      4215 6.61765E+01 5.00000E+00 5.00000E+00
 -1      4216 6.76471E+01 4.24975E+00 4.24975E+00
 -1      4217 6.76471E+01 5.75025E+00 5.75025E+00
 -1      4218 6.72945E+01 4.11063E+00 5.88937E+00
 -1      4219 6.50584E+01 5.88937E+00 4.11063E+00
 -1      4220 7.20588E+01 5.00000E+00 5.00000E+00
 -1      4221 7.09408E+01 5.88937E+00 4.11063E+00
 -1      4222 2.09414E+01 5.89001E+00 4.11116E+00
 -1      4223 2.90591E+01 5.88853E+00 5.89016E+00
 -1      4224 5.14706E+01 5.00018E+00 5.00018E+00
 -1      4225 5.03526E+01 5.88985E+00 4.11107E+00
 -1      4226 5.03526E+01 4.11107E+00 5.88985E+00
 -1      4227 7.79412E+01 1.27357E+00 1.27357E+00
 -1      4228 6.61765E+01 8.72643E+00 1.27357E+00
 -1      4229 7.79412E+01 8.72643E+00 8.72643E+00
 -1      4230 7.20588E+01 8.72643E+00 1.27357E+00
 -1      4231 6.61765E+01 1.27357E+00 8.72643E+00
 -1      4232 5.58423E+01 8.74956E+00 8.72643E+00
 -1      4233 2.79412E+01 8.72643E+00 8.72643E+00
 -1      4234 5.14706E+01 8.72643E+00 1.27357E+00
 -1      4235 3.38235E+01 1.27357E+00 8.72643E+00
 -1      4236 3.38235E+01 5.00147E+00 4.99701E+00
 -1      4237 3.27055E+01 4.10981E+00 5.89019E+00
 -1      4238 4.55781E+01 4.99727E+00 4.99739E+00
 -1      4239 4.41024E+01 4.24920E+00 5.75080E+00
 -1      4240 4.44604E+01 4.10785E+00 4.11108E+00
 -1      4241 3.27064E+01 5.88956E+00 4.11232E+00
 -1      4242 5.14706E+01 1.27357E+00 8.72643E+00
 -1      4243 3.38188E+01 8.74613E+00 1.27357E+00
 -1      4244 2.20521E+01 8.75071E+00 1.27357E+00
 -1      4245 4.44561E+01 5.89136E+00 5.88825E+00
 -1      4246 3.96957E+01 4.99629E+00 4.99935E+00
 -1      4247 4.55816E+01 1.26507E+00 1.26122E+00
 -1      4248 4.55757E+01 8.73878E+00 8.74613E+00
 -1      4249 2.79412E+01 1.26571E+00 1.27357E+00
 -1      4250 7.06447E+01 1.45958E+00 2.73314E+00
 -1      4251 6.99094E+01 1.45958E+00 1.45958E+00
 -1      4252 7.06447E+01 2.73314E+00 1.45958E+00
 -1      4253 6.75906E+01 7.26686E+00 8.54042E+00
 -1      4254 6.83259E+01 8.54042E+00 8.54042E+00
 -1      4255 6.75906E+01 8.54042E+00 7.26686E+00
 -1      4256 4.11160E+01 1.45805E+00 7.29423E+00
 -1      4257 4.18537E+01 1.45805E+00 8.54195E+00
 -1      4258 4.11160E+01 2.70577E+00 8.54195E+00
 -1      4259 9.25490E+01 8.54010E+00 6.05420E+00
 -1      4260 9.26090E+01 6.91163E+00 7.27569E+00
 -1      4261 6.14418E+01 8.41512E+00 8.40864E+00
 -1      4262 9.81313E+01 8.89672E-01 8.82616E-01
 -1      4263 9.69177E+01 1.28770E+00 8.82616E-01
 -1      4264 9.74912E+01 1.56950E+00 2.43389E+00
 -1      4265 9.74987E+01 2.45917E+00 1.55127E+00
 -1      4266 9.89619E+01 2.82572E+00 9.15064E-01
 -1      4267 9.84293E+01 2.48456E+00 2.46633E+00
 -1      4268 3.06436E+00 8.71284E+00 8.90485E-01
 -1      4269 1.86757E+00 9.11757E+00 8.90485E-01
 -1      4270 2.45271E+00 7.59134E+00 1.53620E+00
 -1      4271 2.44532E+00 8.47377E+00 2.42669E+00
 -1      4272 1.24901E+01 4.72665E+00 5.27127E+00
 -1      4273 8.30874E+01 4.72243E+00 5.27757E+00
 -1      4274 8.74975E+01 4.72243E+00 5.27757E+00
 -1      4275 1.69083E+01 4.72665E+00 5.27381E+00
 -1      4276 9.69248E+01 9.11738E+00 1.28808E+00
 -1      4277 9.81239E+01 9.11738E+00 8.82616E-01
 -1      4278 9.75393E+01 8.46916E+00 2.41346E+00
 -1      4279 9.75393E+01 7.58654E+00 1.53084E+00
 -1      4280 9.18765E+01 8.54010E+00 7.29101E+00
 -1      4281 9.33492E+01 8.37153E+00 7.48651E+00
 -1      4282 5.66176E+01 4.72318E+00 5.27736E+00
 -1      4283 9.90619E+01 9.15064E-01 1.79768E+00
 -1      4284 9.89175E+01 9.15064E-01 2.79006E+00
 -1      4285 6.10294E+01 4.72318E+00 5.27736E+00
 -1      4286 7.53270E+00 5.04434E+00 5.03705E+00
 -1      4287 9.81388E+01 8.89672E-01 9.11033E+00
 -1      4288 9.69252E+01 1.28770E+00 9.11033E+00
 -1      4289 9.75394E+01 1.51699E+00 7.59334E+00
 -1      4290 9.75394E+01 2.40666E+00 8.48301E+00
 -1      4291 1.86742E+00 8.89044E-01 9.11738E+00
 -1      4292 3.07802E+00 1.28649E+00 9.11738E+00
 -1      4293 2.47131E+00 1.52948E+00 7.60613E+00
 -1      4294 2.46258E+00 2.41852E+00 8.48875E+00
 -1      4295 9.90694E+01 1.80474E+00 9.15064E-01
 -1      4296 1.87555E+00 9.11757E+00 9.11738E+00
 -1      4297 3.07234E+00 8.71284E+00 9.11738E+00
 -1      4298 2.42569E+00 8.51365E+00 7.63102E+00
 -1      4299 2.42509E+00 7.63122E+00 8.51365E+00
 -1      4300 9.69322E+01 8.71192E+00 9.11033E+00
 -1      4301 9.81313E+01 9.11738E+00 9.11033E+00
 -1      4302 9.75725E+01 7.64661E+00 8.51138E+00
 -1      4303 9.75800E+01 8.52922E+00 7.62171E+00
 -1      4304 9.63734E+01 7.24114E+00 8.51138E+00
 -1      4305 1.08253E+00 9.15064E-01 7.20994E+00
 -1      4306 1.53324E+00 2.44454E+00 7.57369E+00
 -1      4307 9.89175E+01 7.20994E+00 9.15064E-01
 -1      4308 9.84774E+01 7.55409E+00 2.44591E+00
 -1      4309 1.85943E+00 8.89044E-01 8.90485E-01
 -1      4310 3.07003E+00 1.28649E+00 8.90485E-01
 -1      4311 2.47954E+00 1.52910E+00 2.41944E+00
 -1      4312 2.47879E+00 2.41814E+00 1.52896E+00
 -1      4313 6.94702E+01 7.28765E+00 1.43879E+00
 -1      4314 6.94702E+01 8.56121E+00 2.71235E+00
 -1      4315 9.38075E-01 9.15064E-01 8.20231E+00
 -1      4316 1.03815E+00 9.15064E-01 2.82572E+00
 -1      4317 1.54945E+00 2.44416E+00 2.44402E+00
 -1      4318 9.90619E+01 9.08494E+00 1.79768E+00
 -1      4319 9.89175E+01 9.08494E+00 2.79006E+00
 -1      4320 9.90619E+01 8.20232E+00 9.15064E-01
 -1      4321 9.37478E-01 7.32162E+00 9.88383E-01
 -1      4322 1.03619E+00 2.82380E+00 9.08494E+00
 -1      4323 9.29345E-01 1.80411E+00 9.08494E+00
 -1      4324 9.90694E+01 9.88383E-01 7.31438E+00
 -1      4325 9.37478E-01 8.20251E+00 9.15064E-01
 -1      4326 1.51523E+00 7.55870E+00 2.45127E+00
 -1      4327 9.30089E-01 9.15064E-01 1.80555E+00
 -1      4328 1.03619E+00 2.82380E+00 9.15064E-01
 -1      4329 9.29345E-01 1.80411E+00 9.15064E-01
 -1      4330 7.60656E+01 1.45958E+00 1.45958E+00
 -1      4331 7.68009E+01 2.73314E+00 1.45958E+00
 -1      4332 7.68009E+01 1.45958E+00 2.73314E+00
 -1      4333 7.68009E+01 7.26686E+00 8.54042E+00
 -1      4334 7.68009E+01 8.54042E+00 7.26686E+00
 -1      4335 7.60656E+01 8.54042E+00 8.54042E+00
 -1      4336 6.73167E+01 2.73314E+00 8.54042E+00
 -1      4337 6.73167E+01 1.45958E+00 7.26686E+00
 -1      4338 6.80520E+01 1.45958E+00 8.54042E+00
 -1      4339 6.43009E+01 8.54042E+00 1.45958E+00
 -1      4340 6.50362E+01 8.54042E+00 2.73314E+00
 -1      4341 6.50362E+01 7.26686E+00 1.45958E+00
 -1      4342 2.90814E+01 7.26686E+00 8.54042E+00
 -1      4343 2.98167E+01 8.54042E+00 8.54042E+00
 -1      4344 2.90814E+01 8.54042E+00 7.26686E+00
 -1      4345 4.95951E+01 8.54042E+00 1.45958E+00
 -1      4346 5.03304E+01 8.54042E+00 2.73314E+00
 -1      4347 5.03304E+01 7.26686E+00 1.45958E+00
 -1      4348 3.19485E+01 1.45912E+00 8.54088E+00
 -1      4349 3.26838E+01 1.45912E+00 7.26731E+00
 -1      4350 3.26838E+01 2.73269E+00 8.54088E+00
 -1      4351 5.03298E+01 2.73261E+00 8.54095E+00
 -1      4352 4.95945E+01 1.45905E+00 8.54095E+00
 -1      4353 5.03298E+01 1.45905E+00 7.26739E+00
 -1      4354 2.90769E+01 2.72497E+00 1.46022E+00
 -1      4355 2.98122E+01 1.45926E+00 1.46022E+00
 -1      4356 2.90769E+01 1.45926E+00 2.73379E+00
 -1      4357 9.90694E+01 9.15064E-01 8.19526E+00
 -1      4358 9.84700E+01 2.43205E+00 7.56795E+00
 -1      4359 3.26779E+01 7.28425E+00 1.45626E+00
 -1      4360 3.19473E+01 8.53812E+00 1.45626E+00
 -1      4361 3.26826E+01 8.53812E+00 2.72983E+00
 -1      4362 4.44481E+01 2.72362E+00 1.46202E+00
 -1      4363 4.44392E+01 1.45856E+00 2.72323E+00
 -1      4364 4.37117E+01 1.45856E+00 1.46202E+00
 -1      4365 8.80778E+01 1.52131E+00 8.47869E+00
 -1      4366 2.09179E+01 8.53871E+00 2.72897E+00
 -1      4367 2.09112E+01 7.28942E+00 1.45540E+00
 -1      4368 2.01826E+01 8.53871E+00 1.45540E+00
 -1      4369 6.16082E+01 1.52194E+00 8.47988E+00
 -1      4370 8.25086E+01 1.52102E+00 8.47898E+00
 -1      4371 5.61501E+01 1.37032E+00 8.58732E+00
 -1      4372 1.74854E+01 1.52846E+00 8.47911E+00
 -1      4373 1.08253E+00 9.09246E+00 7.21746E+00
 -1      4374 9.38075E-01 9.09246E+00 8.20984E+00
 -1      4375 1.48761E+00 7.60611E+00 7.60611E+00
 -1      4376 9.89175E+01 7.21746E+00 9.09246E+00
 -1      4377 9.90619E+01 8.20984E+00 9.09246E+00
 -1      4378 9.85106E+01 7.62168E+00 7.60384E+00
 -1      4379 9.37478E-01 7.27360E+00 9.09248E+00
 -1      4380 4.37071E+01 8.54246E+00 8.53925E+00
 -1      4381 4.44346E+01 7.28124E+00 8.53925E+00
 -1      4382 4.44377E+01 8.54246E+00 7.28537E+00
 -1      4383 9.30089E-01 9.02678E+00 2.68560E+00
 -1      4384 9.30089E-01 9.08494E+00 1.80555E+00
 -1      4385 1.19183E+01 1.52879E+00 8.48155E+00
 -1      4386 9.90694E+01 2.68479E+00 9.02678E+00
 -1      4387 9.37478E-01 8.21003E+00 9.09246E+00
 -1      4388 7.09408E+01 8.56121E+00 2.71235E+00
 -1      4389 7.09408E+01 7.28765E+00 1.43879E+00
 -1      4390 7.02055E+01 8.56121E+00 1.43879E+00
 -1      4391 9.90694E+01 1.80474E+00 9.08494E+00
 -1      4392 9.24297E+01 5.48720E+00 5.49635E+00
 -1      4393 9.90694E+01 9.09248E+00 7.26636E+00
 -1      4394 9.90694E+01 9.09246E+00 8.20279E+00
 -1      4395 9.26256E+01 5.87039E+00 8.73559E+00
 -1      4396 9.57186E+01 8.71192E+00 8.71230E+00
 -1      4397 9.49036E+01 7.08346E+00 8.73559E+00
 -1      4398 9.18978E+01 7.27349E+00 8.54010E+00
 -1      4399 9.33705E+01 7.10492E+00 8.73559E+00
 -1      4400 9.11564E+01 8.54010E+00 8.54010E+00
 -1      4401 9.40996E+01 8.37153E+00 8.73559E+00
 -1      4402 9.26380E+01 8.73339E+00 8.75091E+00
 -1      4403 8.90967E+01 8.30198E+00 4.19917E+00
 -3
    3C                          2340                                     1
 -1      1401    6    0    1
 -2      1555      2465       984      2490      2563      2564      2565      2566      2568      2567
 -1      1402    6    0    1
 -2       984      2465      1555      2483      2564      2563      2565      2569      2571      2570
 -1      1403    6    0    1
 -2       583      2469       547      2471      2572      2573       888      2574      2576      2575
 -1      1404    6    0    1
 -2      1569      1536      2469      2492      1874      2577      2578      2579      2581      2580
 -1      1405    6    0    1
 -2      1564      2470      2451      2472      2582      2583      2584      2585      2587      2586
 -1      1406    6    0    1
 -2       578      2451      2470      2491      2588      2583      2589      2590      2592      2591
 -1      1407    6    0    1
 -2      1507       973      2475      2498      2593      2594      2595      2596      2598      2597
 -1      1408    6    0    1
 -2      2456      2475       973      2498      2599      2594      2600      2601      2597      2598
 -1      1409    6    0    1
 -2      1507      2475      2456      2498      2595      2599      2602      2596      2597      2601
 -1      1410    6    0    1
 -2       541      2451       578      2491      2603      2588       877      2604      2592      2590
 -1      1411    6    0    1
 -2      1564      2451      1495      2472      2584      2605      1857      2585      2586      2606
 -1      1412    6    0    1
 -2       991      2493      1483      2504      2607      2608      2609      2610      2612      2611
 -1      1413    6    0    1
 -2      1483      2493      2453      2504      2608      2613      2614      2611      2612      2615
 -1      1414    6    0    1
 -2       564      2521      2462      2543      2616      2617      2618      2619      2621      2620
 -1      1415    6    0    1
 -2      2462      2521      2037      2543      2617      2622      2623      2620      2621      2624
 -1      1416    6    0    1
 -2       564       498      2521      2543       901      2625      2616      2619      2626      2621
 -1      1417    6    0    1
 -2      2009      2037      2521      2543      2326      2622      2627      2628      2624      2621
 -1      1418    6    0    1
 -2       578      2451       541      2470      2588      2603       877      2589      2583      2629
 -1      1419    6    0    1
 -2      1495      2451      1564      2470      2605      2584      1857      2630      2583      2582
 -1      1420    6    0    1
 -2      1045      1044       973      2456      1306      1303      1304      2631      2632      2600
 -1      1421    6    0    1
 -2      1542      1507      1547      2456      1803      1913      1939      2633      2602      2634
 -1      1422    6    0    1
 -2      1483      2453      1537      2504      2614      2635      1883      2611      2615      2636
 -1      1423    6    0    1
 -2      1483      1541      1537      2453      1884      1886      1883      2614      2637      2635
 -1      1424    6    0    1
 -2      1486      2455      1559      2473      2638      2639      1900      2640      2642      2641
 -1      1425    6    0    1
 -2      1559      2455      1486      2525      2639      2638      1900      2643      2645      2644
 -1      1426    6    0    1
 -2      1515      2462      1514      2474      2646      2647      1832      2648      2650      2649
 -1      1427    6    0    1
 -2      1509      2455      1560      2474      2651      2652      1831      2653      2655      2654
 -1      1428    6    0    1
 -2      1555      1533      1504      2465      1906      1848      1946      2563      2657      2656
 -1      1429    6    0    1
 -2      2455      2473      1486      2525      2642      2640      2638      2645      2658      2644
 -1      1430    6    0    1
 -2      2461      2490      1508      2529      2659      2660      2661      2662      2664      2663
 -1      1431    6    0    1
 -2      1560      2455      1509      2528      2652      2651      1831      2665      2667      2666
 -1      1432    6    0    1
 -2      1549      2461      1508      2529      2668      2661      1903      2669      2662      2663
 -1      1433    6    0    1
 -2      1521      2460      1543      2482      2670      2671      1823      2672      2674      2673
 -1      1434    6    0    1
 -2       534      2462       564      2474      2675      2618       852      2676      2650      2677
 -1      1435    6    0    1
 -2      1549      1508      2461      2490      1903      2661      2668      2678      2660      2659
 -1      1436    6    0    1
 -2      2455      2474      1509      2528      2655      2653      2651      2667      2679      2666
 -1      1437    6    0    1
 -2      1056      2455       998      2481      2680      2681      1431      2682      2684      2683
 -1      1438    6    0    1
 -2      2007      2455      2042      2481      2685      2686      2415      2687      2684      2688
 -1      1439    6    0    1
 -2      1014      1060      2455      2473      1362      2689      2690      2691      2692      2642
 -1      1440    6    0    1
 -2      1538      1523      2457      2475      1916      2693      2694      2695      2697      2696
 -1      1441    6    0    1
 -2      2013      2457      2029      2476      2698      2699      2291      2700      2702      2701
 -1      1442    6    0    1
 -2      1044       973      2456      2475      1303      2600      2632      2703      2594      2599
 -1      1443    6    0    1
 -2      1053      2457       977      2475      2704      2705      1324      2706      2696      2707
 -1      1444    6    0    1
 -2      1547      2456      1507      2475      2634      2602      1913      2708      2599      2595
 -1      1445    6    0    1
 -2       484       552      2457      2476       831      2709      2710      2711      2712      2702
 -1      1446    6    0    1
 -2       553       508      2459      2480       947      2713      2714      2715      2717      2716
 -1      1447    6    0    1
 -2      1544      2459      1497      2480      2718      2719      1790      2720      2716      2721
 -1      1448    6    0    1
 -2      2012      2037      2462      2481      2416      2623      2722      2723      2725      2724
 -1      1449    6    0    1
 -2       995      2462      1055      2481      2726      2727      1415      2728      2724      2729
 -1      1450    6    0    1
 -2       565      2455       521      2474      2730      2731       849      2732      2655      2733
 -1      1451    6    0    1
 -2      1555      2465      1504      2483      2563      2656      1946      2570      2571      2734
 -1      1452    6    0    1
 -2       562      2460       536      2482      2735      2736       958      2737      2674      2738
 -1      1453    6    0    1
 -2      1049      2460      1013      2485      2739      2740      1334      2741      2743      2742
 -1      1454    6    0    1
 -2      2034      1977      2460      2485      2381      2744      2745      2746      2747      2743
 -1      1455    6    0    1
 -2      2003      2455      2046      2487      2748      2749      2446      2750      2752      2751
 -1      1456    6    0    1
 -2      1063      2461       996      2486      2753      2754      1419      2755      2757      2756
 -1      1457    6    0    1
 -2      2000      2461      2048      2486      2758      2759      2334      2760      2757      2761
 -1      1458    6    0    1
 -2       568      2455       501      2487      2762      2763       916      2764      2752      2765
 -1      1459    6    0    1
 -2       569      2461       522      2489      2766      2767       859      2768      2770      2769
 -1      1460    6    0    1
 -2      1502      1552      2463      2482      1820      2771      2772      2773      2775      2774
 -1      1461    6    0    1
 -2      1533      2465      1555      2490      2657      2563      1906      2776      2568      2566
 -1      1462    6    0    1
 -2       499       572      2461      2484       908      2777      2778      2779      2781      2780
 -1      1463    6    0    1
 -2      2053      1978      2461      2484      2388      2782      2783      2784      2785      2780
 -1      1464    6    0    1
 -2      1514      2462      1515      2512      2647      2646      1832      2786      2788      2787
 -1      1465    6    0    1
 -2      1065      2461      1015      2490      2789      2790      1457      2791      2659      2792
 -1      1466    6    0    1
 -2      1010      2463      1064      2485      2793      2794      1333      2795      2797      2796
 -1      1467    6    0    1
 -2       984      1039      1017      2465      1360      1359      1358      2564      2799      2798
 -1      1468    6    0    1
 -2       542       511      2454      2513       880      2800      2801      2802      2804      2803
 -1      1469    6    0    1
 -2       521      2455       565      2528      2731      2730       849      2805      2667      2806
 -1      1470    6    0    1
 -2      2003      2046      2455      2521      2446      2749      2748      2807      2809      2808
 -1      1471    6    0    1
 -2      1512      2453      1537      2508      2810      2635      1805      2811      2813      2812
 -1      1472    6    0    1
 -2      1056       998      2455      2523      1431      2681      2680      2814      2816      2815
 -1      1473    6    0    1
 -2      2007      2042      2455      2523      2415      2686      2685      2817      2818      2815
 -1      1474    6    0    1
 -2      1060      1014      2455      2525      1362      2690      2689      2819      2820      2645
 -1      1475    6    0    1
 -2      1538      2457      1523      2519      2694      2693      1916      2821      2823      2822
 -1      1476    6    0    1
 -2      2029      2457      2013      2518      2699      2698      2291      2824      2826      2825
 -1      1477    6    0    1
 -2       977      2457      1053      2519      2705      2704      1324      2827      2823      2828
 -1      1478    6    0    1
 -2       552       484      2457      2518       831      2710      2709      2829      2830      2826
 -1      1479    6    0    1
 -2       501      2455       568      2521      2763      2762       916      2831      2808      2832
 -1      1480    6    0    1
 -2       572       499      2461      2524       908      2778      2777      2833      2835      2834
 -1      1481    6    0    1
 -2      2053      2461      1978      2524      2783      2782      2388      2836      2834      2837
 -1      1482    6    0    1
 -2      1015      2461      1065      2529      2790      2789      1457      2838      2662      2839
 -1      1483    6    0    1
 -2      1543      2460      1521      2507      2671      2670      1823      2840      2842      2841
 -1      1484    6    0    1
 -2      1063       996      2461      2514      1419      2754      2753      2843      2845      2844
 -1      1485    6    0    1
 -2       522      2461       569      2527      2767      2766       859      2846      2848      2847
 -1      1486    6    0    1
 -2      2048      2461      2000      2514      2759      2758      2334      2849      2844      2850
 -1      1487    6    0    1
 -2       973      1045      2456      2498      1304      2631      2600      2598      2851      2601
 -1      1488    6    0    1
 -2      1507      2456      1542      2498      2602      2633      1803      2596      2601      2852
 -1      1489    6    0    1
 -2       564      2462       534      2512      2618      2675       852      2853      2788      2854
 -1      1490    6    0    1
 -2       521      2474      2455      2528      2733      2655      2731      2805      2679      2667
 -1      1491    6    0    1
 -2      1502      2463      1552      2530      2772      2771      1820      2855      2857      2856
 -1      1492    6    0    1
 -2      1497      2459      1544      2506      2719      2718      1790      2858      2860      2859
 -1      1493    6    0    1
 -2       562       536      2460      2507       958      2736      2735      2861      2862      2842
 -1      1494    6    0    1
 -2       553      2459       508      2506      2714      2713       947      2863      2860      2864
 -1      1495    6    0    1
 -2       549      2453       497      2508      2865      2866       897      2867      2813      2868
 -1      1496    6    0    1
 -2       496      2463       571      2482      2869      2870       892      2871      2774      2872
 -1      1497    6    0    1
 -2      1485      2461      1551      2489      2873      2874      1893      2875      2770      2876
 -1      1498    6    0    1
 -2      1525      2454      1474      2513      2877      2878      1837      2879      2803      2880
 -1      1499    6    0    1
 -2       998      2481      2455      2523      2683      2684      2681      2816      2881      2815
 -1      1500    6    0    1
 -2      2455      2481      2007      2523      2684      2687      2685      2815      2881      2817
 -1      1501    6    0    1
 -2      1523      2457      2475      2519      2693      2696      2697      2822      2823      2882
 -1      1502    6    0    1
 -2      2013      2457      2476      2518      2698      2702      2700      2825      2826      2883
 -1      1503    6    0    1
 -2       977      2475      2457      2519      2707      2696      2705      2827      2882      2823
 -1      1504    6    0    1
 -2       484      2476      2457      2518      2711      2702      2710      2830      2883      2826
 -1      1505    6    0    1
 -2       984      2465      1017      2490      2564      2798      1358      2567      2568      2884
 -1      1506    6    0    1
 -2      1064      2463      1010      2531      2794      2793      1333      2885      2887      2886
 -1      1507    6    0    1
 -2      1014      2473      2455      2525      2691      2642      2690      2820      2658      2645
 -1      1508    6    0    1
 -2      1039      2465       984      2483      2799      2564      1360      2888      2571      2569
 -1      1509    6    0    1
 -2      2455      2487      2003      2521      2752      2750      2748      2808      2889      2807
 -1      1510    6    0    1
 -2      2049      2463      1975      2485      2890      2891      2372      2892      2797      2893
 -1      1511    6    0    1
 -2       501      2487      2455      2521      2765      2752      2763      2831      2889      2808
 -1      1512    6    0    1
 -2       499      2484      2461      2524      2779      2780      2778      2835      2894      2834
 -1      1513    6    0    1
 -2      2461      2484      1978      2524      2780      2785      2782      2834      2894      2837
 -1      1514    6    0    1
 -2      1541      2453      1483      2493      2637      2614      1884      2895      2613      2608
 -1      1515    6    0    1
 -2       547      2469      2452      2471      2573      2896      2897      2575      2576      2898
 -1      1516    6    0    1
 -2       996      2486      2461      2514      2756      2757      2754      2845      2899      2844
 -1      1517    6    0    1
 -2      1015      2490      2461      2529      2792      2659      2790      2838      2664      2662
 -1      1518    6    0    1
 -2      2452      2469      1536      2492      2896      2577      2900      2901      2580      2581
 -1      1519    6    0    1
 -2      1514      2474      2462      2512      2649      2650      2647      2786      2902      2788
 -1      1520    6    0    1
 -2       522      2489      2461      2527      2769      2770      2767      2846      2903      2848
 -1      1521    6    0    1
 -2      2000      2461      2486      2514      2758      2757      2760      2850      2844      2899
 -1      1522    6    0    1
 -2      2463      2485      1010      2531      2797      2795      2793      2887      2904      2886
 -1      1523    6    0    1
 -2      1502      2482      2463      2530      2773      2774      2772      2855      2905      2857
 -1      1524    6    0    1
 -2      1551      2461      1485      2527      2874      2873      1893      2906      2848      2907
 -1      1525    6    0    1
 -2       571      2463       496      2530      2870      2869       892      2908      2857      2909
 -1      1526    6    0    1
 -2      2460      2482      1521      2507      2674      2672      2670      2842      2910      2841
 -1      1527    6    0    1
 -2      2462      2474       534      2512      2650      2676      2675      2788      2902      2854
 -1      1528    6    0    1
 -2       496      2463      2482      2530      2869      2774      2871      2909      2857      2905
 -1      1529    6    0    1
 -2      1013      2460      1049      2532      2740      2739      1334      2911      2913      2912
 -1      1530    6    0    1
 -2      1497      2480      2459      2506      2721      2716      2719      2858      2914      2860
 -1      1531    6    0    1
 -2      2459      2480       508      2506      2716      2717      2713      2860      2914      2864
 -1      1532    6    0    1
 -2       536      2482      2460      2507      2738      2674      2736      2862      2910      2842
 -1      1533    6    0    1
 -2      2034      2460      1977      2532      2745      2744      2381      2915      2913      2916
 -1      1534    6    0    1
 -2      2461      2489      1485      2527      2770      2875      2873      2848      2903      2907
 -1      1535    6    0    1
 -2      2012      2462      2037      2533      2722      2623      2416      2917      2919      2918
 -1      1536    6    0    1
 -2      1975      2463      2049      2531      2891      2890      2372      2920      2887      2921
 -1      1537    6    0    1
 -2      1055      2462       995      2533      2727      2726      1415      2922      2919      2923
 -1      1538    6    0    1
 -2       511       542      2454      2495       880      2801      2800      2924      2926      2925
 -1      1539    6    0    1
 -2       347       342      2451      2497       393      2927      2928      2929      2931      2930
 -1      1540    6    0    1
 -2       498      2009      2521      2543      2932      2627      2625      2626      2628      2621
 -1      1541    6    0    1
 -2      1975      2485      2463      2531      2893      2797      2891      2920      2904      2887
 -1      1542    6    0    1
 -2      1537      2453      1512      2496      2635      2810      1805      2933      2935      2934
 -1      1543    6    0    1
 -2       342       337       347      2451       404       405       393      2927      2936      2928
 -1      1544    6    0    1
 -2      1474      2454      1525      2495      2878      2877      1837      2937      2925      2938
 -1      1545    6    0    1
 -2      1013      2485      2460      2532      2742      2743      2740      2911      2939      2913
 -1      1546    6    0    1
 -2       497      2453       549      2496      2866      2865       897      2940      2935      2941
 -1      1547    6    0    1
 -2       415       410       420      2452       477       478       466      2942      2944      2943
 -1      1548    6    0    1
 -2      2012      2481      2462      2533      2723      2724      2722      2917      2945      2919
 -1      1549    6    0    1
 -2      2462      2481       995      2533      2724      2728      2726      2919      2945      2923
 -1      1550    6    0    1
 -2       420       415      2452      2500       466      2942      2943      2946      2948      2947
 -1      1551    6    0    1
 -2      2454      2495      1474      2513      2925      2937      2878      2803      2949      2880
 -1      1552    6    0    1
 -2      2460      2485      1977      2532      2743      2747      2744      2913      2939      2916
 -1      1553    6    0    1
 -2      1512      2496      2453      2508      2934      2935      2810      2811      2950      2813
 -1      1554    6    0    1
 -2       535      2017      2539      2540      2951      2952      2953      2954      2956      2955
 -1      1555    6    0    1
 -2       507      1962      1992      2538      2957      2148      2958      2959      2961      2960
 -1      1556    6    0    1
 -2       511      2495      2454      2513      2924      2925      2800      2804      2949      2803
 -1      1557    6    0    1
 -2      1973       535      2017      2539      2962      2951      2175      2963      2953      2952
 -1      1558    6    0    1
 -2       485       535      1973      2539       793      2962      2964      2965      2953      2963
 -1      1559    6    0    1
 -2      2452      2492      1536      2504      2901      2581      2900      2966      2968      2967
 -1      1560    6    0    1
 -2      2453      2496       497      2508      2935      2940      2866      2813      2950      2868
 -1      1561    6    0    1
 -2      1495      2472      2451      2536      2606      2586      2605      2969      2971      2970
 -1      1562    6    0    1
 -2       342       337      2451      2491       404      2936      2927      2972      2973      2592
 -1      1563    6    0    1
 -2       415       410      2452      2492       477      2944      2942      2974      2975      2901
 -1      1564    6    0    1
 -2      2451      2491       541      2535      2592      2604      2603      2976      2978      2977
 -1      1565    6    0    1
 -2      2454      2499      1546      2536      2979      2980      2981      2982      2984      2983
 -1      1566    6    0    1
 -2      2035      2477      2459      2541      2985      2986      2987      2988      2990      2989
 -1      1567    6    0    1
 -2       547      2471      2452      2505      2575      2898      2897      2991      2993      2992
 -1      1568    6    0    1
 -2      1050      2459      2477      2541      2994      2986      2995      2996      2989      2990
 -1      1569    6    0    1
 -2       342      2491      2451      2497      2972      2592      2927      2931      2997      2930
 -1      1570    6    0    1
 -2      1057      2501      2460      2522      2998      2999      3000      3001      3003      3002
 -1      1571    6    0    1
 -2      1035      2503      2454      2534      3004      3005      3006      3007      3009      3008
 -1      1572    6    0    1
 -2      2460      2501      1553      2522      2999      3010      3011      3002      3003      3012
 -1      1573    6    0    1
 -2      1972      2477      2035      2541      3013      2985      2354      3014      2990      2988
 -1      1574    6    0    1
 -2      1050      2477      1019      2541      2995      3015      1410      2996      2990      3016
 -1      1575    6    0    1
 -2      2454      2503      2020      2534      3005      3017      3018      3008      3009      3019
 -1      1576    6    0    1
 -2       549       559      2453      2508       900      3020      2865      2867      3021      2813
 -1      1577    6    0    1
 -2      1497       508      2480      2506      3022      2717      2721      2858      2864      2914
 -1      1578    6    0    1
 -2       536      1521      2482      2507      3023      2672      2738      2862      2841      2910
 -1      1579    6    0    1
 -2      1541      1537      2453      2508      1886      2635      2637      3024      2812      2813
 -1      1580    6    0    1
 -2      1493      1546      2499      2536      1928      2980      3025      3026      2983      2984
 -1      1581    6    0    1
 -2       557      2459       553      2506      3027      2714       828      3028      2860      2863
 -1      1582    6    0    1
 -2      1514       534      2474      2512      3029      2676      2649      2786      2854      2902
 -1      1583    6    0    1
 -2       562      2460       555      2507      2735      3030       970      2861      2842      3031
 -1      1584    6    0    1
 -2      1515      2512      2462      2550      2787      2788      2646      3032      3034      3033
 -1      1585    6    0    1
 -2       415      2492      2452      2500      2974      2901      2942      2948      3035      2947
 -1      1586    6    0    1
 -2      1544      2506      2459      2549      2859      2860      2718      3036      3038      3037
 -1      1587    6    0    1
 -2      1543      1553      2460      2507      1891      3011      2671      2840      3039      2842
 -1      1588    6    0    1
 -2      2050      2460      2034      2532      3040      2745      2384      3041      2913      2915
 -1      1589    6    0    1
 -2       542      2454       574      2513      2801      3042       856      2802      2803      3043
 -1      1590    6    0    1
 -2      1515      1557      2512      2550      1953      3044      2787      3032      3045      3034
 -1      1591    6    0    1
 -2       550      2462       564      2512      3046      2618       905      3047      2788      2853
 -1      1592    6    0    1
 -2      1067      2499      2454      2536      3048      2979      3049      3050      2984      2982
 -1      1593    6    0    1
 -2      1544      1554      2506      2549      1865      3051      2859      3036      3052      3038
 -1      1594    6    0    1
 -2      1013      1977      2485      2532      3053      2747      2742      2911      2916      2939
 -1      1595    6    0    1
 -2      1057      1029      2501      2522      1314      3054      2998      3001      3055      3003
 -1      1596    6    0    1
 -2      1546      2454      1525      2513      2981      2877      1839      3056      2803      2879
 -1      1597    6    0    1
 -2       548      2011      1986      2543      3057      2103      3058      3059      3061      3060
 -1      1598    6    0    1
 -2      1017      2465      1039      2554      2798      2799      1359      3062      3064      3063
 -1      1599    6    0    1
 -2      1484      1553      2501      2522      1890      3010      3065      3066      3012      3003
 -1      1600    6    0    1
 -2      2012       995      2481      2533      3067      2728      2723      2917      2923      2945
 -1      1601    6    0    1
 -2      2053      2461      2048      2514      2783      2759      2389      3068      2844      2849
 -1      1602    6    0    1
 -2      1035       982      2503      2534      1347      3069      3004      3007      3070      3009
 -1      1603    6    0    1
 -2      2037      2462      2038      2533      2623      3071      2448      2918      2919      3072
 -1      1604    6    0    1
 -2      1035      2454      1067      2534      3006      3049      1350      3007      3008      3073
 -1      1605    6    0    1
 -2      2462      2533      1055      2550      2919      2922      2727      3033      3075      3074
 -1      1606    6    0    1
 -2      1063      2461      1065      2514      2753      2789      1423      2843      2844      3076
 -1      1607    6    0    1
 -2      2042      2455      2046      2521      2686      2749      2447      3077      2808      2809
 -1      1608    6    0    1
 -2      1045      1044      2456      2516      1306      2632      2631      3078      3080      3079
 -1      1609    6    0    1
 -2       551      2456       554      2517      3081      3082       813      3083      3085      3084
 -1      1610    6    0    1
 -2      2041      2033      2456      2516      2436      3086      3087      3088      3089      3079
 -1      1611    6    0    1
 -2      1542      2456      1547      2517      2633      2634      1939      3090      3085      3091
 -1      1612    6    0    1
 -2      1538      2457      2519      2548      2694      2823      2821      3092      3094      3093
 -1      1613    6    0    1
 -2      2029      2457      2518      2546      2699      2826      2824      3095      3097      3096
 -1      1614    6    0    1
 -2      1053      2519      2457      2546      2828      2823      2704      3098      3099      3097
 -1      1615    6    0    1
 -2       552      2518      2457      2548      2829      2826      2709      3100      3101      3094
 -1      1616    6    0    1
 -2       568      2455       565      2521      2762      2730       920      2832      2808      3102
 -1      1617    6    0    1
 -2      2046      2455      2042      2523      2749      2686      2447      3103      2815      2818
 -1      1618    6    0    1
 -2      1056      2455      1060      2523      2680      2689      1433      2814      2815      3104
 -1      1619    6    0    1
 -2      1057      2460      1049      2522      3000      2739      1456      3001      3002      3105
 -1      1620    6    0    1
 -2      1543      2460      1553      2522      2671      3011      1891      3106      3002      3012
 -1      1621    6    0    1
 -2       572      2461       569      2524      2777      2766       910      2833      2834      3107
 -1      1622    6    0    1
 -2      2053      2048      2461      2524      2389      2759      2783      2836      3108      2834
 -1      1623    6    0    1
 -2      2456      2511       554      2517      3109      3110      3082      3085      3111      3084
 -1      1624    6    0    1
 -2      1045      2456      2510      2516      2631      3112      3113      3078      3079      3114
 -1      1625    6    0    1
 -2      2033      2510      2456      2516      3115      3112      3086      3089      3114      3079
 -1      1626    6    0    1
 -2      1542      2511      2456      2517      3116      3109      2633      3090      3111      3085
 -1      1627    6    0    1
 -2       548      2542      2011      2543      3117      3118      3057      3059      3119      3061
 -1      1628    6    0    1
 -2       569      2461       572      2527      2766      2777       910      2847      2848      3120
 -1      1629    6    0    1
 -2      1060      2455      1056      2525      2689      2680      1433      2819      2645      3121
 -1      1630    6    0    1
 -2      1560      2455      1559      2525      2652      2639      1901      3122      2645      2643
 -1      1631    6    0    1
 -2      2040      2454      2020      2534      3123      3018      2332      3124      3008      3019
 -1      1632    6    0    1
 -2      1065      2461      1063      2529      2789      2753      1423      2839      2662      3125
 -1      1633    6    0    1
 -2      1551      1549      2461      2527      1896      2668      2874      2906      3126      2848
 -1      1634    6    0    1
 -2      1043      1055      2533      2550      1418      2922      3127      3128      3074      3075
 -1      1635    6    0    1
 -2      1560      1559      2455      2528      1901      2639      2652      2665      3129      2667
 -1      1636    6    0    1
 -2       565      2455       568      2528      2730      2762       920      2806      2667      3130
 -1      1637    6    0    1
 -2      1504      2465      1533      2555      2656      2657      1848      3131      3133      3132
 -1      1638    6    0    1
 -2      2000      2486       996      2514      2760      2756      3134      2850      2899      2845
 -1      1639    6    0    1
 -2      1057      1049      2460      2532      1456      2739      3000      3135      2912      2913
 -1      1640    6    0    1
 -2      1552      2530      2463      2557      2856      2857      2771      3136      3138      3137
 -1      1641    6    0    1
 -2      2013      2476       484      2518      2700      2711      3139      2825      2883      2830
 -1      1642    6    0    1
 -2      1523      2475       977      2519      2697      2707      3140      2822      2882      2827
 -1      1643    6    0    1
 -2       998      2007      2481      2523      3141      2687      2683      2816      2817      2881
 -1      1644    6    0    1
 -2      1525      2454      1546      2536      2877      2981      1839      3142      2982      2983
 -1      1645    6    0    1
 -2      2049      2531      2463      2556      2921      2887      2890      3143      3145      3144
 -1      1646    6    0    1
 -2       501      2003      2487      2521      3146      2750      2765      2831      2807      2889
 -1      1647    6    0    1
 -2      1551      2461      1549      2529      2874      2668      1896      3147      2662      2669
 -1      1648    6    0    1
 -2      2463      2531      1064      2557      2887      2885      2794      3137      3149      3148
 -1      1649    6    0    1
 -2      2463      2530       571      2556      2857      2908      2870      3144      3151      3150
 -1      1650    6    0    1
 -2       503       334       544      2491      3152      3153       601      3154      3156      3155
 -1      1651    6    0    1
 -2      1014      1486      2473      2525      3157      2640      2691      2820      2644      2658
 -1      1652    6    0    1
 -2       522      1485      2489      2527      3158      2875      2769      2846      2907      2903
 -1      1653    6    0    1
 -2      1003      2499      1067      2536      3159      3048      1445      3160      2984      3050
 -1      1654    6    0    1
 -2       521      1509      2474      2528      3161      2653      2733      2805      2666      2679
 -1      1655    6    0    1
 -2      2467      2539      2017      2540      3162      2952      3163      3164      2955      2956
 -1      1656    6    0    1
 -2       535      2539      2467      2540      2953      3162      3165      2954      2955      3164
 -1      1657    6    0    1
 -2       519      2537      2466      2538      3166      3167      3168      3169      3171      3170
 -1      1658    6    0    1
 -2      1987      2020      2503      2534      2423      3017      3172      3173      3019      3009
 -1      1659    6    0    1
 -2      1975      1010      2485      2531      3174      2795      2893      2920      2886      2904
 -1      1660    6    0    1
 -2       496      2482      1502      2530      2871      2773      3175      2909      2905      2855
 -1      1661    6    0    1
 -2      2029      2518      2030      2546      2824      3176      2450      3095      3096      3177
 -1      1662    6    0    1
 -2      1538      2519      1539      2548      2821      3178      1957      3092      3093      3179
 -1      1663    6    0    1
 -2       552       561      2518      2548       833      3180      2829      3100      3181      3101
 -1      1664    6    0    1
 -2      1046      2519      1053      2546      3182      2828      1326      3183      3099      3098
 -1      1665    6    0    1
 -2       499      1978      2484      2524      3184      2785      2779      2835      2837      2894
 -1      1666    6    0    1
 -2      1552      1556      2530      2557      1881      3185      2856      3136      3186      3138
 -1      1667    6    0    1
 -2      2049      2036      2531      2556      2374      3187      2921      3143      3188      3145
 -1      1668    6    0    1
 -2       549      2505      2453      2539      3189      3190      2865      3191      3193      3192
 -1      1669    6    0    1
 -2      1015      1508      2490      2529      3194      2660      2792      2838      2663      2664
 -1      1670    6    0    1
 -2      1054      1064      2531      2557      1393      2885      3195      3196      3148      3149
 -1      1671    6    0    1
 -2      1067      2454      1035      2536      3049      3006      1350      3050      2982      3197
 -1      1672    6    0    1
 -2       563       571      2530      2556       895      2908      3198      3199      3150      3151
 -1      1673    6    0    1
 -2       543       548      1986      2543       721      3058      3200      3201      3059      3060
 -1      1674    6    0    1
 -2      1481      1536      2492      2504      1871      2581      3202      3203      2967      2968
 -1      1675    6    0    1
 -2      2451      2472      1034      2536      2586      3204      3205      2970      2971      3206
 -1      1676    6    0    1
 -2       407      1489       409      2469      3207      3208       459      3209      3211      3210
 -1      1677    6    0    1
 -2      2011      2542      2468      2543      3118      3212      3213      3061      3119      3214
 -1      1678    6    0    1
 -2      1071      2451      1034      2497      3215      3205      1369      3216      2930      3217
 -1      1679    6    0    1
 -2       407      1561      1489      2492      3218      1594      3207      3219      3221      3220
 -1      1680    6    0    1
 -2      1034      2451      1071      2472      3205      3215      1369      3204      2586      3222
 -1      1681    6    0    1
 -2      1076      2452      1040      2492      3223      3224      1380      3225      2901      3226
 -1      1682    6    0    1
 -2      2452      2469       547      2496      2896      2573      2897      3227      3229      3228
 -1      1683    6    0    1
 -2      2035      2459      2051      2541      2987      3230      2358      2988      2989      3231
 -1      1684    6    0    1
 -2      2462      2481      2037      2521      2724      2725      2623      2617      3232      2622
 -1      1685    6    0    1
 -2       564      2474      2462      2521      2677      2650      2618      2616      3233      2617
 -1      1686    6    0    1
 -2      1989      2491      2451      2535      3234      2592      3235      3236      2978      2976
 -1      1687    6    0    1
 -2      1989      2451      2057      2497      3235      3237      2351      3238      2930      3239
 -1      1688    6    0    1
 -2       549      2453       559      2539      2865      3020       900      3191      3192      3240
 -1      1689    6    0    1
 -2      2050      2034      1977      2532      2384      2381      2382      3041      2915      2916
 -1      1690    6    0    1
 -2       557       553      2459      2537       828      2714      3027      3241      3243      3242
 -1      1691    6    0    1
 -2       562       555      2460      2538       970      3030      2735      3244      3246      3245
 -1      1692    6    0    1
 -2      2041      2456      2033      2540      3087      3086      2436      3247      3249      3248
 -1      1693    6    0    1
 -2       554      2456       551      2540      3082      3081       813      3250      3249      3251
 -1      1694    6    0    1
 -2      2034      2460      2050      2538      2745      3040      2384      3252      3245      3253
 -1      1695    6    0    1
 -2      2051      2459      2035      2537      3230      2987      2358      3254      3242      3255
 -1      1696    6    0    1
 -2      1536      2469      2452      2496      2577      2896      2900      3256      3229      3227
 -1      1697    6    0    1
 -2      1512       497      2496      2508      3257      2940      2934      2811      2868      2950
 -1      1698    6    0    1
 -2      2459      2541      1050      2549      2989      2996      2994      3037      3259      3258
 -1      1699    6    0    1
 -2      1042      1047      2453      2544      1398      3260      3261      3262      3264      3263
 -1      1700    6    0    1
 -2      2057      2451      1989      2491      3237      3235      2351      3265      2592      3234
 -1      1701    6    0    1
 -2      2041      2476      2456      2540      3266      3267      3087      3247      3268      3249
 -1      1702    6    0    1
 -2      2456      2476       551      2540      3267      3269      3081      3249      3268      3251
 -1      1703    6    0    1
 -2      2468      2542       548      2543      3212      3117      3270      3214      3119      3059
 -1      1704    6    0    1
 -2      1514      1515      1557      2512      1832      1953      1922      2786      2787      3044
 -1      1705    6    0    1
 -2       557       553       508      2506       828       947       944      3028      2863      2864
 -1      1706    6    0    1
 -2       562       555       536      2507       970       822       958      2861      3031      2862
 -1      1707    6    0    1
 -2       529      2505       549      2539      3271      3189       814      3272      3193      3191
 -1      1708    6    0    1
 -2       511      1474      2495      2513      3273      2937      2924      2804      2880      2949
 -1      1709    6    0    1
 -2      1541      1512      1537      2508      1867      1805      1886      3024      2811      2812
 -1      1710    6    0    1
 -2      2020      2454      2040      2542      3018      3123      2332      3274      3276      3275
 -1      1711    6    0    1
 -2      2038      2462      2037      2543      3071      2623      2448      3277      2620      2624
 -1      1712    6    0    1
 -2       542       574      2454      2542       856      3042      2801      3278      3279      3276
 -1      1713    6    0    1
 -2      1497      1544      1554      2506      1790      1865      1933      2858      2859      3051
 -1      1714    6    0    1
 -2       550       564      2462      2543       905      2618      3046      3280      2619      2620
 -1      1715    6    0    1
 -2      1069      2472      1478      2536      3281      3282      3283      3284      2971      3285
 -1      1716    6    0    1
 -2      1543      1521      1553      2507      1823      1814      1891      2840      2841      3039
 -1      1717    6    0    1
 -2       549       497       559      2508       897       898       900      2867      2868      3021
 -1      1718    6    0    1
 -2      2452      2500      1076      2558      2947      3286      3223      3287      3289      3288
 -1      1719    6    0    1
 -2       542       574       511      2513       856       953       880      2802      3043      2804
 -1      1720    6    0    1
 -2      1495      1478      2472      2536      1856      3282      2606      2969      3285      2971
 -1      1721    6    0    1
 -2      1481      2492       988      2504      3202      3290      3291      3203      2968      3292
 -1      1722    6    0    1
 -2       550       564       534      2512       905       852       848      3047      2853      2854
 -1      1723    6    0    1
 -2      1493      1525      1546      2536      1925      1839      1928      3026      3142      2983
 -1      1724    6    0    1
 -2       577      2471       547      2505      3293      2575       818      3294      2993      2991
 -1      1725    6    0    1
 -2       336       334       503      2470       365      3152      3295      3296      3298      3297
 -1      1726    6    0    1
 -2      2452      2469       420      2471      2896      3299      2943      2898      2576      3300
 -1      1727    6    0    1
 -2      2012      2037      2038      2533      2416      2448      2321      2917      2918      3072
 -1      1728    6    0    1
 -2      1043      1055       995      2533      1418      1415      1416      3127      2922      2923
 -1      1729    6    0    1
 -2      1546      1525      1474      2513      1839      1837      1835      3056      2879      2880
 -1      1730    6    0    1
 -2      1035      1067       982      2534      1350      1349      1347      3007      3073      3070
 -1      1731    6    0    1
 -2      1972      1019      2477      2541      3301      3015      3013      3014      3016      2990
 -1      1732    6    0    1
 -2       347      2451      2472      2497      2928      2586      3302      2929      2930      3303
 -1      1733    6    0    1
 -2      1057      1013      1049      2532      1453      1334      1456      3135      2911      2912
 -1      1734    6    0    1
 -2       541      2470      2451      2495      2629      2583      2603      3304      3306      3305
 -1      1735    6    0    1
 -2       410       420      2452      2469       478      2943      2944      3307      3299      2896
 -1      1736    6    0    1
 -2       554      2511       480      2517      3110      3308       812      3084      3111      3309
 -1      1737    6    0    1
 -2      1045      2510      1008      2516      3113      3310      1451      3078      3114      3311
 -1      1738    6    0    1
 -2      1998      2510      2033      2516      3312      3115      2295      3313      3114      3089
 -1      1739    6    0    1
 -2      1542      1500      2511      2517      1937      3314      3116      3090      3315      3111
 -1      1740    6    0    1
 -2      2053      2048      2000      2514      2389      2334      2440      3068      2849      2850
 -1      1741    6    0    1
 -2       407      1489      2469      2492      3207      3211      3209      3219      3220      2580
 -1      1742    6    0    1
 -2      2451      2470      1495      2495      2583      2630      2605      3305      3306      3316
 -1      1743    6    0    1
 -2      1987      2040      2020      2534      2424      2332      2423      3173      3124      3019
 -1      1744    6    0    1
 -2      1982      2054       406      2500      2087      3317      3318      3319      3321      3320
 -1      1745    6    0    1
 -2       493      2491      2055      2535      3322      3323      3324      3325      2978      3326
 -1      1746    6    0    1
 -2      1063      1065       996      2514      1423      1422      1419      2843      3076      2845
 -1      1747    6    0    1
 -2      1071      2472      2451      2497      3222      2586      3215      3216      3303      2930
 -1      1748    6    0    1
 -2      1502      1552      1556      2530      1820      1881      1944      2855      2856      3185
 -1      1749    6    0    1
 -2       551       554       480      2517       813       812       809      3083      3084      3309
 -1      1750    6    0    1
 -2      1045      1008      1044      2516      1451      1404      1306      3078      3311      3080
 -1      1751    6    0    1
 -2      2029      2013      2030      2518      2291      2410      2450      2824      2825      3176
 -1      1752    6    0    1
 -2      1542      1547      1500      2517      1939      1796      1937      3090      3091      3315
 -1      1753    6    0    1
 -2      2041      1998      2033      2516      2407      2295      2436      3088      3313      3089
 -1      1754    6    0    1
 -2      1538      1523      1539      2519      1916      1817      1957      2821      2822      3178
 -1      1755    6    0    1
 -2       552       561       484      2518       833       830       831      2829      3180      2830
 -1      1756    6    0    1
 -2      1046       977      1053      2519      1323      1324      1326      3182      2827      2828
 -1      1757    6    0    1
 -2      2003      2042      2046      2521      2323      2447      2446      2807      3077      2809
 -1      1758    6    0    1
 -2       501       568       565      2521       916       920       919      2831      2832      3102
 -1      1759    6    0    1
 -2       522       569       572      2527       859       910       962      2846      2847      3120
 -1      1760    6    0    1
 -2      1057      1049      1029      2522      1456      1455      1314      3001      3105      3055
 -1      1761    6    0    1
 -2      1543      1553      1484      2522      1891      1890      1887      3106      3012      3066
 -1      1762    6    0    1
 -2       572       569       499      2524       910       907       908      2833      3107      2835
 -1      1763    6    0    1
 -2      2053      1978      2048      2524      2388      2385      2389      2836      2837      3108
 -1      1764    6    0    1
 -2      1056      1060       998      2523      1433      1430      1431      2814      3104      2816
 -1      1765    6    0    1
 -2      2007      2046      2042      2523      2343      2447      2415      2817      3103      2818
 -1      1766    6    0    1
 -2      2451      2491      2057      2497      2592      3265      3237      2930      2997      3239
 -1      1767    6    0    1
 -2      1551      1485      1549      2527      1893      1894      1896      2906      2907      3126
 -1      1768    6    0    1
 -2      2453      2539      2028      2544      3192      3327      3328      3263      3330      3329
 -1      1769    6    0    1
 -2      1060      1056      1014      2525      1433      1343      1362      2819      3121      2820
 -1      1770    6    0    1
 -2      2032      2028      2539      2544      2379      3327      3331      3332      3329      3330
 -1      1771    6    0    1
 -2      1015      1065      1063      2529      1457      1423      1353      2838      2839      3125
 -1      1772    6    0    1
 -2      1982      2062      2054      2500      2403      2369      2087      3319      3333      3321
 -1      1773    6    0    1
 -2      1975      2049      2036      2531      2372      2374      2371      2920      2921      3187
 -1      1774    6    0    1
 -2       420      2452      2471      2500      2943      2898      3300      2946      2947      3334
 -1      1775    6    0    1
 -2       541      2491       493      2535      2604      3322       874      2977      2978      3325
 -1      1776    6    0    1
 -2      2452      2492      1076      2500      2901      3225      3223      2947      3035      3286
 -1      1777    6    0    1
 -2       553      2515      2459      2537      3335      3336      2714      3243      3337      3242
 -1      1778    6    0    1
 -2       521       565       568      2528       849       920       870      2805      2806      3130
 -1      1779    6    0    1
 -2      1003      1067      1035      2536      1445      1350      1374      3160      3050      3197
 -1      1780    6    0    1
 -2       562      2460      2526      2538      2735      3338      3339      3244      3245      3340
 -1      1781    6    0    1
 -2      2459      2515      2035      2537      3336      3341      2987      3242      3337      3255
 -1      1782    6    0    1
 -2      1054      1064      1010      2531      1393      1333      1424      3195      2885      2886
 -1      1783    6    0    1
 -2      2034      2526      2460      2538      3342      3338      2745      3252      3340      3245
 -1      1784    6    0    1
 -2      1048      1050      2541      2549      1321      2996      3343      3344      3258      3259
 -1      1785    6    0    1
 -2       578       503       544      2491       926       601       879      2590      3154      3155
 -1      1786    6    0    1
 -2      1560      1509      1559      2528      1831      1850      1901      2665      2666      3129
 -1      1787    6    0    1
 -2      1069      1034      2472      2536      1377      3204      3281      3284      3206      2971
 -1      1788    6    0    1
 -2      1560      1559      1486      2525      1901      1900      1897      3122      2643      2644
 -1      1789    6    0    1
 -2      1037       333      1000      2497      3345      3346      1094      3347      3349      3348
 -1      1790    6    0    1
 -2       563       571       496      2530       895       892       893      3198      2908      2909
 -1      1791    6    0    1
 -2      2056      2471       577      2505      3350      3293      3351      3352      2993      3294
 -1      1792    6    0    1
 -2      1551      1549      1508      2529      1896      1903      1840      3147      2669      2663
 -1      1793    6    0    1
 -2      2022      1981       338      2497      2080      3353      3354      3355      3357      3356
 -1      1794    6    0    1
 -2       503      2470       334      2491      3297      3298      3152      3154      2591      3156
 -1      1795    6    0    1
 -2      1034      2497      2451      2503      3217      2930      3205      3358      3360      3359
 -1      1796    6    0    1
 -2       504       413       575      2469      3361      3362       608      3363      3365      3364
 -1      1797    6    0    1
 -2      2451      2497      1989      2503      2930      3238      3235      3359      3360      3366
 -1      1798    6    0    1
 -2       583       504       575      2469       929       608       890      2572      3363      3364
 -1      1799    6    0    1
 -2      2022      2057      1981      2497      2352      2400      2080      3355      3239      3357
 -1      1800    6    0    1
 -2      1071      1037      1000      2497      1371      1094      1439      3216      3347      3348
 -1      1801    6    0    1
 -2      1536      2496      2452      2504      3256      3227      2900      2967      3367      2966
 -1      1802    6    0    1
 -2      2494      1545      2512      2513      3368      3369      3370      3371      3373      3372
 -1      1803    6    0    1
 -2      2453      2505      2028      2539      3190      3374      3328      3192      3193      3327
 -1      1804    6    0    1
 -2      1052      2493      2509      2510      3375      3376      3377      3378      3380      3379
 -1      1805    6    0    1
 -2      2493      1550      2508      2511      3381      3382      3383      3384      3386      3385
 -1      1806    6    0    1
 -2      2494      2499      1545      2513      3387      3388      3368      3371      3389      3373
 -1      1807    6    0    1
 -2      1515      2462      2474      2550      2646      2650      2648      3032      3033      3390
 -1      1808    6    0    1
 -2      1050      2477      2459      2549      2995      2986      2994      3258      3391      3037
 -1      1809    6    0    1
 -2      1053      2457      2475      2546      2704      2696      2706      3098      3097      3392
 -1      1810    6    0    1
 -2      1538      2475      2457      2548      2695      2696      2694      3092      3393      3094
 -1      1811    6    0    1
 -2      2029      2476      2457      2546      2701      2702      2699      3095      3394      3097
 -1      1812    6    0    1
 -2      2457      2476       552      2548      2702      2712      2709      3094      3395      3100
 -1      1813    6    0    1
 -2      1544      2459      2480      2549      2718      2716      2720      3036      3037      3396
 -1      1814    6    0    1
 -2      1488      1527       340      2472      1587      3397      3398      3399      3401      3400
 -1      1815    6    0    1
 -2      1052      2498      2493      2510      3402      3403      3375      3378      3404      3380
 -1      1816    6    0    1
 -2      2493      2498      1550      2511      3403      3405      3381      3384      3406      3386
 -1      1817    6    0    1
 -2      1564      1527      1488      2472      1860      1587      1907      2585      3401      3399
 -1      1818    6    0    1
 -2      1989      2055      2491      2535      2428      3323      3234      3236      3326      2978
 -1      1819    6    0    1
 -2      2463      2482      1552      2557      2774      2775      2771      3137      3407      3136
 -1      1820    6    0    1
 -2      2451      2495      1495      2536      3305      3316      2605      2970      3408      2969
 -1      1821    6    0    1
 -2       547      2452      2496      2505      2897      3227      3228      2991      2992      3409
 -1      1822    6    0    1
 -2      1055      2481      2462      2550      2729      2724      2727      3074      3410      3033
 -1      1823    6    0    1
 -2      2041      1994      2476      2540      2288      3411      3266      3247      3412      3268
 -1      1824    6    0    1
 -2       506       551      2476      2540       937      3269      3413      3414      3251      3268
 -1      1825    6    0    1
 -2       542      2454      2535      2542      2801      3415      3416      3278      3276      3417
 -1      1826    6    0    1
 -2       571      2482      2463      2556      2872      2774      2870      3150      3418      3144
 -1      1827    6    0    1
 -2      1068       411      1001      2492      3419      3420      1101      3421      3423      3422
 -1      1828    6    0    1
 -2      1005      2499      2494      2534      3424      3387      3425      3426      3428      3427
 -1      1829    6    0    1
 -2      1064      2485      2463      2557      2796      2797      2794      3148      3429      3137
 -1      1830    6    0    1
 -2      2049      2463      2485      2556      2890      2797      2892      3143      3144      3430
 -1      1831    6    0    1
 -2      1504      2483      2465      2555      2734      2571      2656      3131      3431      3133
 -1      1832    6    0    1
 -2      2465      2483      1039      2554      2571      2888      2799      3064      3432      3063
 -1      1833    6    0    1
 -2       541      2495      2451      2535      3304      3305      2603      2977      3433      2976
 -1      1834    6    0    1
 -2      2020      2535      2454      2542      3434      3415      3018      3274      3417      3276
 -1      1835    6    0    1
 -2      1499      2506      2501      2507      3435      3436      3437      3438      3440      3439
 -1      1836    6    0    1
 -2      1005      2494      2533      2534      3425      3441      3442      3426      3427      3443
 -1      1837    6    0    1
 -2      1982       406      2471      2500      3318      3444      3445      3319      3320      3334
 -1      1838    6    0    1
 -2      1569      1489      1561      2492      1910      1594      1876      2579      3220      3221
 -1      1839    6    0    1
 -2      1076      1068      1001      2492      1383      1101      1442      3225      3421      3422
 -1      1840    6    0    1
 -2      2022       338       341      2497      3354       372      3446      3355      3356      3447
 -1      1841    6    0    1
 -2       570      2518      2479      2547      3448      3449      3450      3451      3453      3452
 -1      1842    6    0    1
 -2      2031      2478      2518      2547      3454      3455      3456      3457      3458      3453
 -1      1843    6    0    1
 -2      2453      2504      1042      2544      2615      3459      3261      3263      3460      3262
 -1      1844    6    0    1
 -2      1992      1962      1993      2466      2148      2304      2303      3461      3463      3462
 -1      1845    6    0    1
 -2      2484      2514      2002      2554      3464      3465      3466      3467      3469      3468
 -1      1846    6    0    1
 -2       524      2527      2484      2555      3470      3471      3472      3473      3475      3474
 -1      1847    6    0    1
 -2      1533      2490      2527      2555      2776      3476      3477      3132      3478      3475
 -1      1848    6    0    1
 -2      2027      2062      2471      2558      2366      3479      3480      3481      3483      3482
 -1      1849    6    0    1
 -2       532       498      1966      2521       727      3484      3485      3486      2625      3487
 -1      1850    6    0    1
 -2      1966       498      2009      2521      3484      2932      2109      3487      2625      2627
 -1      1851    6    0    1
 -2      2028      2505      2453      2544      3374      3190      3328      3329      3488      3263
 -1      1852    6    0    1
 -2       559      2453      2508      2539      3020      2813      3021      3240      3192      3489
 -1      1853    6    0    1
 -2      2456       554      2511      2540      3082      3110      3109      3249      3250      3490
 -1      1854    6    0    1
 -2      2033      2456      2510      2540      3086      3112      3115      3248      3249      3491
 -1      1855    6    0    1
 -2       333      2472      1000      2497      3492      3493      3346      3349      3303      3348
 -1      1856    6    0    1
 -2      1040      2452      1076      2558      3224      3223      1380      3494      3287      3288
 -1      1857    6    0    1
 -2       555      2507      2460      2538      3031      2842      3030      3246      3495      3245
 -1      1858    6    0    1
 -2       557      2459      2506      2537      3027      2860      3028      3241      3242      3496
 -1      1859    6    0    1
 -2      1017      2514      2490      2554      3497      3498      2884      3062      3469      3499
 -1      1860    6    0    1
 -2      1499      2502      2501      2506      3500      3501      3437      3435      3502      3436
 -1      1861    6    0    1
 -2      1537      2453      2496      2504      2635      2935      2933      2636      2615      3367
 -1      1862    6    0    1
 -2      1047      2509      2453      2544      3503      3504      3260      3264      3505      3263
 -1      1863    6    0    1
 -2      2459      2537      2051      2541      3242      3254      3230      2989      3506      3231
 -1      1864    6    0    1
 -2      1982      2471      2062      2500      3445      3479      2403      3319      3334      3333
 -1      1865    6    0    1
 -2      1981      2491       338      2497      3507      3508      3353      3357      2997      3356
 -1      1866    6    0    1
 -2       549      2496      2453      2505      2941      2935      2865      3189      3409      3190
 -1      1867    6    0    1
 -2      1029      1484      2501      2522      3509      3065      3054      3055      3066      3003
 -1      1868    6    0    1
 -2      2062      2500      2471      2558      3333      3334      3479      3483      3289      3482
 -1      1869    6    0    1
 -2      1960      1031      2509      2510      3510      3511      3512      3513      3514      3379
 -1      1870    6    0    1
 -2      1522       533      2508      2511      3515      3516      3517      3518      3519      3385
 -1      1871    6    0    1
 -2      1960      1031      1997      2509      3510      3520      2272      3512      3511      3521
 -1      1872    6    0    1
 -2      1522       533      1480      2508      3515      3522      1682      3517      3516      3523
 -1      1873    6    0    1
 -2       533       530      1480      2508       696      3524      3522      3516      3525      3523
 -1      1874    6    0    1
 -2      1031       978      1997      2509      1286      3526      3520      3511      3527      3521
 -1      1875    6    0    1
 -2      2050      2460      2532      2538      3040      2913      3041      3253      3245      3528
 -1      1876    6    0    1
 -2      2040      2454      2534      2542      3123      3008      3124      3275      3276      3529
 -1      1877    6    0    1
 -2      1469       520      1498      2506      3530      3531      1655      3532      3534      3533
 -1      1878    6    0    1
 -2      1971      2497       986      2503      3535      3536      3537      3538      3360      3539
 -1      1879    6    0    1
 -2       550      2462      2512      2543      3046      2788      3047      3280      2620      3540
 -1      1880    6    0    1
 -2       413      2469       504      2471      3365      3363      3361      3541      2576      3542
 -1      1881    6    0    1
 -2      2031      2478      2547      2561      3454      3458      3457      3543      3545      3544
 -1      1882    6    0    1
 -2       570      2547      2479      2560      3451      3452      3450      3546      3548      3547
 -1      1883    6    0    1
 -2      2462      2038      2533      2543      3071      3072      2919      2620      3277      3549
 -1      1884    6    0    1
 -2      1003      1493      2499      2536      3550      3025      3159      3160      3026      2984
 -1      1885    6    0    1
 -2      1989      2497      1971      2503      3238      3535      2348      3366      3360      3538
 -1      1886    6    0    1
 -2      1001      2492       411      2500      3422      3423      3420      3551      3035      3552
 -1      1887    6    0    1
 -2      1517       512       487      2513      3553       624      3554      3555      3557      3556
 -1      1888    6    0    1
 -2      2455      2473      1060      2523      2642      2692      2689      2815      3558      3104
 -1      1889    6    0    1
 -2       574      2513      2454      2542      3043      2803      3042      3279      3559      3276
 -1      1890    6    0    1
 -2      2042      2481      2455      2521      2688      2684      2686      3077      3232      2808
 -1      1891    6    0    1
 -2      2455      2474       565      2521      2655      2732      2730      2808      3233      3102
 -1      1892    6    0    1
 -2      1056      2455      2481      2525      2680      2684      2682      3121      2645      3560
 -1      1893    6    0    1
 -2      1560      2474      2455      2525      2654      2655      2652      3122      3561      2645
 -1      1894    6    0    1
 -2      2035      2459      2477      2515      2987      2986      2985      3341      3336      3562
 -1      1895    6    0    1
 -2      2041      2456      2476      2516      3087      3267      3266      3088      3079      3563
 -1      1896    6    0    1
 -2      1044      2475      2456      2516      2703      2599      2632      3080      3564      3079
 -1      1897    6    0    1
 -2      2456      2475      1547      2517      2599      2708      2634      3085      3565      3091
 -1      1898    6    0    1
 -2       551      2476      2456      2517      3269      3267      3081      3083      3566      3085
 -1      1899    6    0    1
 -2       553      2480      2459      2515      2715      2716      2714      3335      3567      3336
 -1      1900    6    0    1
 -2      1543      2482      2460      2522      2673      2674      2671      3106      3568      3002
 -1      1901    6    0    1
 -2       562      2460      2482      2526      2735      2674      2737      3339      3338      3569
 -1      1902    6    0    1
 -2      1049      2460      2485      2522      2739      2743      2741      3105      3002      3570
 -1      1903    6    0    1
 -2      2034      2485      2460      2526      2746      2743      2745      3342      3571      3338
 -1      1904    6    0    1
 -2      2046      2487      2455      2523      2751      2752      2749      3103      3572      2815
 -1      1905    6    0    1
 -2      2455      2487       568      2528      2752      2764      2762      2667      3573      3130
 -1      1906    6    0    1
 -2      2048      2486      2461      2524      2761      2757      2759      3108      3574      2834
 -1      1907    6    0    1
 -2      2461      2486      1063      2529      2757      2755      2753      2662      3575      3125
 -1      1908    6    0    1
 -2      2461      2489       569      2524      2770      2768      2766      2834      3576      3107
 -1      1909    6    0    1
 -2      1559      2473      2455      2528      2641      2642      2639      3129      3577      2667
 -1      1910    6    0    1
 -2       572      2461      2484      2527      2777      2780      2781      3120      2848      3471
 -1      1911    6    0    1
 -2      2057      2491      1981      2497      3265      3507      2400      3239      2997      3357
 -1      1912    6    0    1
 -2      2461      2490      1065      2514      2659      2791      2789      2844      3498      3076
 -1      1913    6    0    1
 -2       524      2555      2484      2562      3473      3474      3472      3578      3580      3579
 -1      1914    6    0    1
 -2      2484      2554      2002      2562      3467      3468      3466      3579      3582      3581
 -1      1915    6    0    1
 -2       583       504      2469      2471       929      3363      2572      2574      3542      2576
 -1      1916    6    0    1
 -2      1071      1000      2472      2497      1439      3493      3222      3216      3348      3303
 -1      1917    6    0    1
 -2      2053      2484      2461      2514      2784      2780      2783      3068      3464      2844
 -1      1918    6    0    1
 -2       986      2497      1034      2503      3536      3217      1368      3539      3360      3358
 -1      1919    6    0    1
 -2      1551      2489      2461      2529      2876      2770      2874      3147      3583      2662
 -1      1920    6    0    1
 -2      1017      2490      2465      2554      2884      2568      2798      3062      3499      3064
 -1      1921    6    0    1
 -2      1533      2465      2490      2555      2657      2568      2776      3132      3133      3478
 -1      1922    6    0    1
 -2       410      2469      2452      2492      3307      2896      2944      2975      2580      2901
 -1      1923    6    0    1
 -2      1549      2490      2461      2527      2678      2659      2668      3126      3476      2848
 -1      1924    6    0    1
 -2       340      1527       335      2472      3397      3584       386      3400      3401      3585
 -1      1925    6    0    1
 -2      1006      1496      1481      2504      3586      1788      3587      3588      3589      3203
 -1      1926    6    0    1
 -2      1481       988      1006      2504      3291      1198      3587      3203      3292      3588
 -1      1927    6    0    1
 -2      2458      2547      2478      2561      3590      3458      3591      3592      3544      3545
 -1      1928    6    0    1
 -2      1994       506      2476      2540      3593      3413      3411      3412      3414      3268
 -1      1929    6    0    1
 -2      1001       411       414      2500      3420       452      3594      3551      3552      3595
 -1      1930    6    0    1
 -2      1040      2492      2452      2504      3226      2901      3224      3596      2968      2966
 -1      1931    6    0    1
 -2      1982       406       412      2471      3318       445      3597      3445      3444      3598
 -1      1932    6    0    1
 -2      2468      2494      2512      2513      3599      3370      3600      3601      3371      3372
 -1      1933    6    0    1
 -2       982      1987      2503      2534      3602      3172      3069      3070      3173      3009
 -1      1934    6    0    1
 -2      2035      2051      1972      2541      2358      2357      2354      2988      3231      3014
 -1      1935    6    0    1
 -2      1047      2493      2453      2509      3603      2613      3260      3503      3376      3504
 -1      1936    6    0    1
 -2      2453      2493      1541      2508      2613      2895      2637      2813      3383      3024
 -1      1937    6    0    1
 -2      1001      1076      2492      2500      1442      3225      3422      3551      3286      3035
 -1      1938    6    0    1
 -2      2456      2498      1045      2510      2601      2851      2631      3112      3404      3113
 -1      1939    6    0    1
 -2      1542      2498      2456      2511      2852      2601      2633      3116      3406      3109
 -1      1940    6    0    1
 -2      2468      2499      2494      2513      3604      3387      3599      3601      3389      3371
 -1      1941    6    0    1
 -2      1061      2532      2502      2541      3605      3606      3607      3608      3610      3609
 -1      1942    6    0    1
 -2      1546      2499      2454      2513      2980      2979      2981      3056      3389      2803
 -1      1943    6    0    1
 -2      2467      2493      2508      2511      3611      3383      3612      3613      3384      3385
 -1      1944    6    0    1
 -2      2493      2467      2509      2510      3611      3614      3376      3380      3615      3379
 -1      1945    6    0    1
 -2      1019      1048      1050      2541      1401      1321      1410      3016      3343      2996
 -1      1946    6    0    1
 -2      2494      2499      2468      2534      3387      3604      3599      3427      3428      3616
 -1      1947    6    0    1
 -2      2479      2547      2458      2560      3452      3590      3617      3547      3548      3618
 -1      1948    6    0    1
 -2      1569      2469      1489      2492      2578      3211      1910      2579      2580      3220
 -1      1949    6    0    1
 -2      2023      1009       992      2532      3619      1259      3620      3621      3623      3622
 -1      1950    6    0    1
 -2      1553      2501      2460      2507      3010      2999      3011      3039      3439      2842
 -1      1951    6    0    1
 -2      2484      2555      2465      2562      3474      3133      3624      3579      3580      3625
 -1      1952    6    0    1
 -2      2465      2554      2484      2562      3064      3467      3624      3625      3582      3579
 -1      1953    6    0    1
 -2      1000       333       339      2472      3346       379      3626      3493      3492      3627
 -1      1954    6    0    1
 -2      1036      1965      2010      2533      3628      2200      3629      3630      3632      3631
 -1      1955    6    0    1
 -2      2467      2498      2493      2511      3633      3403      3611      3613      3406      3384
 -1      1956    6    0    1
 -2      2493      2498      2467      2510      3403      3633      3611      3380      3404      3615
 -1      1957    6    0    1
 -2      2494      2468      2533      2534      3599      3634      3441      3427      3616      3443
 -1      1958    6    0    1
 -2      2479      2518      2458      2547      3449      3635      3617      3452      3453      3590
 -1      1959    6    0    1
 -2      2458      2518      2478      2547      3635      3455      3591      3590      3453      3458
 -1      1960    6    0    1
 -2       408       413       504      2471       438      3361      3636      3637      3541      3542
 -1      1961    6    0    1
 -2      1067      2454      2499      2534      3049      2979      3048      3073      3008      3428
 -1      1962    6    0    1
 -2      2484      2527      2465      2555      3471      3638      3624      3474      3475      3133
 -1      1963    6    0    1
 -2      2460      2501      1057      2532      2999      2998      3000      2913      3639      3135
 -1      1964    6    0    1
 -2      2465      2514      2484      2554      3640      3464      3624      3064      3469      3467
 -1      1965    6    0    1
 -2      2465      2527      2490      2555      3638      3476      2568      3133      3475      3478
 -1      1966    6    0    1
 -2      1481      1496      1536      2504      1788      1872      1871      3203      3589      2967
 -1      1967    6    0    1
 -2      2010      1041      2533      2534      3641      3642      3631      3643      3644      3443
 -1      1968    6    0    1
 -2      2490      2514      2465      2554      3498      3640      2568      3499      3469      3064
 -1      1969    6    0    1
 -2       578      2470       503      2491      2589      3297       926      2590      2591      3154
 -1      1970    6    0    1
 -2      2501      2506      2466      2507      3436      3645      3646      3439      3440      3647
 -1      1971    6    0    1
 -2      1069      1478      1494      2536      3283      1698      3648      3284      3285      3649
 -1      1972    6    0    1
 -2       337      2470      2451      2491      3650      2583      2936      2973      2591      2592
 -1      1973    6    0    1
 -2       529      2005      2505      2539      3651      3652      3271      3272      3653      3193
 -1      1974    6    0    1
 -2       992      2024      2532      2541      3654      3655      3622      3656      3657      3610
 -1      1975    6    0    1
 -2       481      1961       577      2505      3658      3659       802      3660      3661      3294
 -1      1976    6    0    1
 -2      2056       577      1961      2505      3351      3659      2184      3352      3294      3661
 -1      1977    6    0    1
 -2       542      2454      2495      2535      2801      2925      2926      3416      3415      3433
 -1      1978    6    0    1
 -2      1035      2454      2503      2536      3006      3005      3004      3197      2982      3662
 -1      1979    6    0    1
 -2      1488       340      2470      2472      3398      3663      3664      3399      3400      2587
 -1      1980    6    0    1
 -2      2501      2502      1061      2532      3501      3607      3665      3639      3606      3605
 -1      1981    6    0    1
 -2      2020      2503      2454      2535      3017      3005      3018      3434      3666      3415
 -1      1982    6    0    1
 -2      2471      2505      2027      2558      2993      3667      3480      3482      3668      3481
 -1      1983    6    0    1
 -2      1525      2495      2454      2536      2938      2925      2877      3142      3408      2982
 -1      1984    6    0    1
 -2      1564      1488      2470      2472      1907      3664      2582      2585      3399      2587
 -1      1985    6    0    1
 -2      2010      1041      1036      2533      3641      1214      3629      3631      3642      3630
 -1      1986    6    0    1
 -2      1069      1494       987      2536      3648      3669      1108      3284      3649      3670
 -1      1987    6    0    1
 -2       338      2491       342      2497      3508      2972       403      3356      2997      2931
 -1      1988    6    0    1
 -2       510       493      2055      2535       712      3324      3671      3672      3325      3326
 -1      1989    6    0    1
 -2      2501      2502      2466      2506      3501      3673      3646      3436      3502      3645
 -1      1990    6    0    1
 -2      1992      2466      1993      2537      3461      3462      2303      3674      3167      3675
 -1      1991    6    0    1
 -2       407       409       410      2469       459       468       467      3209      3210      3307
 -1      1992    6    0    1
 -2      1993      2466      1962      2538      3462      3463      2304      3676      3170      2961
 -1      1993    6    0    1
 -2      2021       510      2055      2535      3677      3671      2094      3678      3672      3326
 -1      1994    6    0    1
 -2       415       411      2492      2500       476      3423      2974      2948      3552      3035
 -1      1995    6    0    1
 -2      1023      1026      1467      2493      1189      3679      3680      3681      3683      3682
 -1      1996    6    0    1
 -2      1023      1467      1505      2493      3680      1779      3684      3681      3682      3685
 -1      1997    6    0    1
 -2      1467      2493      1026      2498      3682      3683      3679      3686      3403      3687
 -1      1998    6    0    1
 -2      2023       992      2024      2532      3620      3654      2245      3621      3622      3655
 -1      1999    6    0    1
 -2       558      2466       519      2537      3688      3168       941      3689      3167      3166
 -1      2000    6    0    1
 -2       560       535      2467      2540       836      3165      3690      3691      2954      3164
 -1      2001    6    0    1
 -2      2017      2047      2467      2540      2362      3692      3163      2956      3693      3164
 -1      2002    6    0    1
 -2      2039      2468      2011      2542      3694      3213      2421      3695      3212      3118
 -1      2003    6    0    1
 -2       548      2468       513      2542      3270      3696       956      3117      3212      3697
 -1      2004    6    0    1
 -2       495      2469      1563      2496      3698      3699      3700      3701      3229      3702
 -1      2005    6    0    1
 -2      1004      1516      2494      2499      3703      3704      3705      3706      3707      3387
 -1      2006    6    0    1
 -2       980      1004      1516      2494      1117      3703      3708      3709      3705      3704
 -1      2007    6    0    1
 -2      1472       980      1516      2494      3710      3708      1707      3711      3709      3704
 -1      2008    6    0    1
 -2      2452      2505      2471      2558      2992      2993      2898      3287      3668      3482
 -1      2009    6    0    1
 -2       481       577       547      2505       802       818       816      3660      3294      2991
 -1      2010    6    0    1
 -2       337       334       336      2470       394       365       395      3650      3298      3296
 -1      2011    6    0    1
 -2       341       338       342      2497       372       403       392      3447      3356      2931
 -1      2012    6    0    1
 -2      1985      2012       995      2481      2206      3067      3712      3713      2723      2728
 -1      2013    6    0    1
 -2       995      1025      1985      2481      1220      3714      3712      2728      3715      3713
 -1      2014    6    0    1
 -2      1994       506       526      2476      3593       787      3716      3411      3413      3717
 -1      2015    6    0    1
 -2      1959      1994       526      2476      2169      3716      3718      3719      3411      3717
 -1      2016    6    0    1
 -2      1020      1507       973      2475      3720      2593      1183      3721      2595      2594
 -1      2017    6    0    1
 -2       526      2013      1959      2476      3722      2166      3718      3717      2700      3719
 -1      2018    6    0    1
 -2      1490      1507      1020      2475      1773      3720      3723      3724      2595      3721
 -1      2019    6    0    1
 -2       977      1490      1020      2475      3725      3723      1180      2707      3724      3721
 -1      2020    6    0    1
 -2      2013       526       484      2476      3722       784      3139      2700      3717      2711
 -1      2021    6    0    1
 -2      1523      1490       977      2475      1770      3725      3140      2697      3724      2707
 -1      2022    6    0    1
 -2      1972      1019      2019      2477      3301      3726      2251      3013      3015      3727
 -1      2023    6    0    1
 -2      2019      1019       994      2477      3726      1265      3728      3727      3015      3729
 -1      2024    6    0    1
 -2      1497       508       539      2480      3022       675      3730      2721      2717      3731
 -1      2025    6    0    1
 -2      1497       539      1465      2480      3730      3732      1661      2721      3731      3733
 -1      2026    6    0    1
 -2      2007      1985      1025      2481      2209      3714      3734      2687      3713      3715
 -1      2027    6    0    1
 -2      1025       998      2007      2481      1223      3141      3734      3715      2683      2687
 -1      2028    6    0    1
 -2      1968      1018       996      2486      3735      1235      3736      3737      3738      2756
 -1      2029    6    0    1
 -2      2000      1968       996      2486      2221      3736      3134      2760      3737      2756
 -1      2030    6    0    1
 -2      1013      1977       979      2485      3053      3739      1253      2742      2747      3740
 -1      2031    6    0    1
 -2      2008       979      1977      2485      3741      3739      2239      3742      3740      2747
 -1      2032    6    0    1
 -2       518       536      1521      2482       663      3023      3743      3744      2738      2672
 -1      2033    6    0    1
 -2       501      2003       531      2487      3146      3745       733      2765      2750      3746
 -1      2034    6    0    1
 -2       531      2003      2004      2487      3745      2115      3747      3746      2750      3748
 -1      2035    6    0    1
 -2      1521      1471       518      2482      1649      3749      3743      2672      3750      3744
 -1      2036    6    0    1
 -2       488       521      1509      2474       633      3161      3751      3752      2733      2653
 -1      2037    6    0    1
 -2      1509      1473       488      2474      1619      3753      3751      2653      3754      3752
 -1      2038    6    0    1
 -2      1473      1514       534      2474      1616      3029      3755      3754      2649      2676
 -1      2039    6    0    1
 -2       534       488      1473      2474       630      3753      3755      2676      3752      3754
 -1      2040    6    0    1
 -2       496       518      1471      2482       660      3749      3756      2871      3744      3750
 -1      2041    6    0    1
 -2       496      1471      1502      2482      3756      1646      3175      2871      3750      2773
 -1      2042    6    0    1
 -2      2008      1975       979      2485      2236      3757      3741      3742      2893      3740
 -1      2043    6    0    1
 -2       986      1071      1034      2497      1370      1369      1368      3536      3216      3217
 -1      2044    6    0    1
 -2       522      1485       490      2489      3158      3758       645      2769      2875      3759
 -1      2045    6    0    1
 -2      1532       985      1014      2473      3760      1129      3761      3762      3763      2691
 -1      2046    6    0    1
 -2       415       414       411      2500       464       452       476      2948      3595      3552
 -1      2047    6    0    1
 -2      1975      1010       979      2485      3174      1250      3757      2893      2795      3740
 -1      2048    6    0    1
 -2       545      1978      2026      2484      3764      2127      3765      3766      2785      3767
 -1      2049    6    0    1
 -2      1014      1486      1532      2473      3157      1719      3761      2691      2640      3762
 -1      2050    6    0    1
 -2       499      1978       545      2484      3184      3764       745      2779      2785      3766
 -1      2051    6    0    1
 -2      1485      1506       490      2489      1631      3768      3758      2875      3769      3759
 -1      2052    6    0    1
 -2      1971      1989      2057      2497      2348      2351      2350      3535      3238      3239
 -1      2053    6    0    1
 -2      1555       984      1487      2490      2565      3770      1734      2566      2567      3771
 -1      2054    6    0    1
 -2       988      2492      1040      2504      3290      3226      1379      3292      2968      3596
 -1      2055    6    0    1
 -2      1015      1508      1016      2490      3194      3772      1141      2792      2660      3773
 -1      2056    6    0    1
 -2      2502      2532      2466      2541      3606      3774      3673      3609      3610      3775
 -1      2057    6    0    1
 -2      1016      1487       984      2490      3776      3770      1144      3773      3771      2567
 -1      2058    6    0    1
 -2      1984      2518       516      2547      3777      3778      3779      3780      3453      3781
 -1      2059    6    0    1
 -2       984      1555      1021      2483      2565      3782      1147      2569      2570      3783
 -1      2060    6    0    1
 -2      2005      2028      2505      2539      2299      3374      3652      3653      3327      3193
 -1      2061    6    0    1
 -2      1966      2009      2037      2521      2109      2326      2325      3487      2627      2622
 -1      2062    6    0    1
 -2       532       564       498      2521       902       901       727      3486      2616      2625
 -1      2063    6    0    1
 -2      1487      1016      1508      2490      3776      3772      1731      3771      3773      2660
 -1      2064    6    0    1
 -2      1483      1496       991      2504      1785      3784      2609      2611      3589      2610
 -1      2065    6    0    1
 -2      1534      1021      1555      2483      3785      3782      1737      3786      3783      2570
 -1      2066    6    0    1
 -2      2451      2503      1989      2535      3359      3366      3235      2976      3666      3236
 -1      2067    6    0    1
 -2      1034      2503      2451      2536      3358      3359      3205      3206      3662      2970
 -1      2068    6    0    1
 -2       547      2469       495      2496      2573      3698       885      3228      3229      3701
 -1      2069    6    0    1
 -2       410       407      2469      2492       467      3209      3307      2975      3219      2580
 -1      2070    6    0    1
 -2      1988      1971       986      2503      2191      3537      3787      3788      3538      3539
 -1      2071    6    0    1
 -2      1562      2470       576      2495      3789      3790      3791      3792      3306      3793
 -1      2072    6    0    1
 -2      2001      2514      1038      2554      3794      3795      3796      3797      3469      3798
 -1      2073    6    0    1
 -2      1518      2527       523      2555      3799      3800      3801      3802      3475      3803
 -1      2074    6    0    1
 -2      1478      1564      1495      2472      1858      1857      1856      3282      2585      2606
 -1      2075    6    0    1
 -2       529      2005       481      2505      3651      3804       799      3271      3652      3660
 -1      2076    6    0    1
 -2      1491      2479       515      2548      3805      3806      3807      3808      3810      3809
 -1      2077    6    0    1
 -2      1963      2478       989      2546      3811      3812      3813      3814      3816      3815
 -1      2078    6    0    1
 -2      1469      2506      1499      2507      3532      3435      1810      3817      3440      3438
 -1      2079    6    0    1
 -2      1469      1498      1499      2506      1655      1811      1810      3532      3533      3435
 -1      2080    6    0    1
 -2       337       334      2470      2491       394      3298      3650      2973      3156      2591
 -1      2081    6    0    1
 -2       558      2506       520      2507      3818      3534       819      3819      3440      3820
 -1      2082    6    0    1
 -2       558       520       482      2507       819       669       820      3819      3820      3821
 -1      2083    6    0    1
 -2      1002      1988       986      2503      3822      3787      1205      3823      3788      3539
 -1      2084    6    0    1
 -2       531      2487      2004      2553      3746      3748      3747      3824      3826      3825
 -1      2085    6    0    1
 -2      1018      2486      1968      2552      3738      3737      3735      3827      3829      3828
 -1      2086    6    0    1
 -2      1031      1052      2509      2510      1330      3377      3511      3514      3378      3379
 -1      2087    6    0    1
 -2       533       560      2508      2511       968      3830      3516      3519      3831      3385
 -1      2088    6    0    1
 -2      1960      2509      2047      2510      3512      3832      2293      3513      3379      3833
 -1      2089    6    0    1
 -2      1550      1522      2508      2511      1868      3517      3382      3386      3518      3385
 -1      2090    6    0    1
 -2      1492      2512      1545      2513      3834      3369      1924      3835      3372      3373
 -1      2091    6    0    1
 -2      1031      1052       978      2509      1330      1329      1286      3511      3377      3527
 -1      2092    6    0    1
 -2      1960      1997      2047      2509      2272      2294      2293      3512      3521      3832
 -1      2093    6    0    1
 -2       533       560       530      2508       968       967       696      3516      3830      3525
 -1      2094    6    0    1
 -2      1522      1480      1550      2508      1682      1869      1868      3517      3523      3382
 -1      2095    6    0    1
 -2       513      2512       487      2513      3836      3837       844      3838      3372      3556
 -1      2096    6    0    1
 -2      1984       505      2015      2547      3839      3840      2160      3780      3842      3841
 -1      2097    6    0    1
 -2      1984       516       505      2547      3779       778      3839      3780      3781      3842
 -1      2098    6    0    1
 -2      1033      2018       989      2546      3843      3844      1274      3845      3846      3815
 -1      2099    6    0    1
 -2      1491       515      1519      2548      3807      3847      1670      3808      3809      3848
 -1      2100    6    0    1
 -2       515       509      1519      2548       684      3849      3847      3809      3850      3848
 -1      2101    6    0    1
 -2      1963       989      2018      2546      3813      3844      2260      3814      3815      3846
 -1      2102    6    0    1
 -2      1968      2014       999      2552      2218      3851      3852      3828      3854      3853
 -1      2103    6    0    1
 -2      1018      1968       999      2552      3735      3852      1232      3827      3828      3853
 -1      2104    6    0    1
 -2       502       531      1980      2553       736      3855      3856      3857      3824      3858
 -1      2105    6    0    1
 -2       531      2004      1980      2553      3747      2118      3855      3824      3825      3858
 -1      2106    6    0    1
 -2       985      2473      1532      2545      3763      3762      3760      3859      3861      3860
 -1      2107    6    0    1
 -2       512       513       487      2513       845       844       624      3557      3838      3556
 -1      2108    6    0    1
 -2      1492      1545      1517      2513      1924      1923      1610      3835      3373      3555
 -1      2109    6    0    1
 -2      1061       992      2532      2541      1399      3622      3605      3608      3656      3610
 -1      2110    6    0    1
 -2       490      2489      1506      2551      3759      3769      3768      3862      3864      3863
 -1      2111    6    0    1
 -2      1558       985      1532      2545      3865      3760      1722      3866      3859      3860
 -1      2112    6    0    1
 -2      2027      2471      2056      2505      3480      3350      2302      3667      2993      3352
 -1      2113    6    0    1
 -2      1481      1536      1569      2492      1871      1874      1873      3202      2581      2579
 -1      2114    6    0    1
 -2       988      1076      1040      2492      1381      1380      1379      3290      3225      3226
 -1      2115    6    0    1
 -2       490      1506       537      2551      3768      3867       642      3862      3863      3868
 -1      2116    6    0    1
 -2      1021      2483      1534      2557      3783      3786      3785      3869      3871      3870
 -1      2117    6    0    1
 -2      1482       990      1021      2557      3872      1150      3873      3874      3875      3869
 -1      2118    6    0    1
 -2      1030       985      1558      2545      1132      3865      3876      3877      3859      3866
 -1      2119    6    0    1
 -2       500      2488      1979      2556      3878      3879      3880      3881      3883      3882
 -1      2120    6    0    1
 -2       493       541       578      2491       874       877       876      3322      2604      2590
 -1      2121    6    0    1
 -2      1482      1021      1534      2557      3873      3785      1740      3874      3869      3870
 -1      2122    6    0    1
 -2      2001      1038      1066      2554      3796      1241      3884      3797      3798      3885
 -1      2123    6    0    1
 -2      2010      1965      2039      2533      2200      2319      2318      3631      3632      3886
 -1      2124    6    0    1
 -2      1993      2466      2532      2541      3462      3774      3887      3888      3775      3610
 -1      2125    6    0    1
 -2       991      1496      1006      2504      3784      3586      1195      2610      3589      3588
 -1      2126    6    0    1
 -2      1066      1969      2001      2554      3889      2227      3884      3885      3890      3797
 -1      2127    6    0    1
 -2      1518       523       491      2555      3801       651      3891      3802      3803      3892
 -1      2128    6    0    1
 -2      1979      1995       517      2556      2136      3893      3894      3882      3896      3895
 -1      2129    6    0    1
 -2       500      1979       517      2556      3880      3894       754      3881      3882      3895
 -1      2130    6    0    1
 -2       537      1506      1510      2551      3867      1628      3897      3868      3863      3898
 -1      2131    6    0    1
 -2      1536      1563      2469      2496      1809      3699      2577      3256      3702      3229
 -1      2132    6    0    1
 -2      1009      1061       992      2532      1400      1399      1259      3623      3605      3622
 -1      2133    6    0    1
 -2      1993      2532      2024      2541      3887      3655      2432      3888      3610      3657
 -1      2134    6    0    1
 -2      1495      1494      1478      2536      1855      1698      1856      2969      3649      3285
 -1      2135    6    0    1
 -2       420      2471       406      2500      3300      3444       462      2946      3334      3320
 -1      2136    6    0    1
 -2      2466      2502      2501      2532      3673      3501      3646      3774      3606      3639
 -1      2137    6    0    1
 -2      2478      2519      1046      2546      3899      3182      3900      3816      3099      3183
 -1      2138    6    0    1
 -2      2030      2518      2478      2546      3176      3455      3901      3177      3096      3816
 -1      2139    6    0    1
 -2       561      2479      2518      2548      3902      3449      3180      3181      3810      3101
 -1      2140    6    0    1
 -2      1539      2519      2479      2548      3178      3903      3904      3179      3093      3810
 -1      2141    6    0    1
 -2      2010      2533      2039      2534      3631      3886      2318      3643      3443      3905
 -1      2142    6    0    1
 -2      1528      1529       975      2501      1752      3906      3907      3908      3910      3909
 -1      2143    6    0    1
 -2       483      2515       553      2537      3911      3335       826      3912      3337      3243
 -1      2144    6    0    1
 -2      1557      2494      2512      2550      3913      3370      3044      3045      3914      3034
 -1      2145    6    0    1
 -2       562      2526       538      2538      3339      3915       842      3244      3340      3916
 -1      2146    6    0    1
 -2      2483      2530      1556      2557      3917      3185      3918      3871      3138      3186
 -1      2147    6    0    1
 -2      2035      2515      1991      2537      3341      3919      2284      3255      3337      3920
 -1      2148    6    0    1
 -2      2488      2531      2036      2556      3921      3187      3922      3883      3145      3188
 -1      2149    6    0    1
 -2      2034      2016      2526      2538      2315      3923      3342      3252      3924      3340
 -1      2150    6    0    1
 -2      1518       491      1476      2555      3891      3925      1637      3802      3892      3926
 -1      2151    6    0    1
 -2      1054      2531      2483      2557      3195      3927      3928      3196      3149      3871
 -1      2152    6    0    1
 -2      1034      1071      1069      2472      1369      1440      1377      3204      3222      3281
 -1      2153    6    0    1
 -2      1043      2533      2494      2550      3127      3441      3929      3128      3075      3914
 -1      2154    6    0    1
 -2      2502      2506      1554      2549      3502      3051      3930      3931      3038      3052
 -1      2155    6    0    1
 -2       563      2530      2488      2556      3198      3932      3933      3199      3151      3883
 -1      2156    6    0    1
 -2      2471      2500      2452      2558      3334      2947      2898      3482      3289      3287
 -1      2157    6    0    1
 -2      1562       576       494      2495      3791       615      3934      3792      3793      3935
 -1      2158    6    0    1
 -2       541       576      2470      2495       884      3790      2629      3304      3793      3306
 -1      2159    6    0    1
 -2       514       495      1563      2496       705      3700      3936      3937      3701      3702
 -1      2160    6    0    1
 -2      1526      1562       494      2495      1601      3934      3938      3939      3792      3935
 -1      2161    6    0    1
 -2      1041      1005      2533      2534      1448      3442      3642      3644      3426      3443
 -1      2162    6    0    1
 -2       542      2535       489      2542      3416      3940       855      3278      3417      3941
 -1      2163    6    0    1
 -2       558      2466      2506      2507      3688      3645      3818      3819      3647      3440
 -1      2164    6    0    1
 -2      2467      2508       560      2511      3612      3830      3690      3613      3385      3831
 -1      2165    6    0    1
 -2      2047      2509      2467      2510      3832      3614      3692      3833      3379      3615
 -1      2166    6    0    1
 -2      2468      2512       513      2513      3600      3836      3696      3601      3372      3838
 -1      2167    6    0    1
 -2       481      2005      1961      2505      3804      2181      3658      3660      3652      3661
 -1      2168    6    0    1
 -2      1495      2470      1562      2495      2630      3789      1931      3316      3306      3792
 -1      2169    6    0    1
 -2       347      2472       333      2497      3302      3492       389      2929      3303      3349
 -1      2170    6    0    1
 -2       420       406       415      2500       462       463       466      2946      3320      2948
 -1      2171    6    0    1
 -2      1468       514      1563      2496      3942      3936      1691      3943      3937      3702
 -1      2172    6    0    1
 -2      2473      2545      1058      2552      3861      3944      3945      3946      3948      3947
 -1      2173    6    0    1
 -2       480      2511      1500      2517      3308      3314      3949      3309      3111      3315
 -1      2174    6    0    1
 -2      1998      1008      2510      2516      3950      3310      3312      3313      3311      3114
 -1      2175    6    0    1
 -2      1483      1537      1496      2504      1883      1882      1785      2611      2636      3589
 -1      2176    6    0    1
 -2      2031      2518      1984      2547      3456      3777      2412      3457      3453      3780
 -1      2177    6    0    1
 -2       516      2518       570      2547      3778      3448       933      3781      3453      3451
 -1      2178    6    0    1
 -2       420      2469       413      2471      3299      3365       473      3300      2576      3541
 -1      2179    6    0    1
 -2      1059      2545      2486      2552      3951      3952      3953      3954      3948      3829
 -1      2180    6    0    1
 -2       583       495       547      2469       887       885       888      2572      3698      2573
 -1      2181    6    0    1
 -2      2489      2551       567      2553      3864      3955      3956      3957      3959      3958
 -1      2182    6    0    1
 -2      2045      2487      2552      2553      3960      3961      3962      3963      3826      3964
 -1      2183    6    0    1
 -2      2044      2552      2486      2553      3965      3829      3966      3967      3964      3968
 -1      2184    6    0    1
 -2       510       541       493      2535       875       874       712      3672      2977      3325
 -1      2185    6    0    1
 -2       566      2551      2487      2553      3969      3970      3971      3972      3959      3826
 -1      2186    6    0    1
 -2       523      2527       524      2555      3800      3470       865      3803      3475      3473
 -1      2187    6    0    1
 -2      1993      2537      2466      2541      3675      3167      3462      3888      3506      3775
 -1      2188    6    0    1
 -2      2002      2514      2001      2554      3465      3794      2338      3468      3469      3797
 -1      2189    6    0    1
 -2      2039      2533      2468      2534      3886      3634      3694      3905      3443      3616
 -1      2190    6    0    1
 -2      1518      1533      2527      2555      1849      3477      3799      3802      3132      3475
 -1      2191    6    0    1
 -2      2027      2062      2056      2471      2366      2405      2302      3480      3479      3350
 -1      2192    6    0    1
 -2       577       583       547      2471       931       888       818      3293      2574      2575
 -1      2193    6    0    1
 -2      2020      1967      2535      2542      2331      3973      3434      3274      3974      3417
 -1      2194    6    0    1
 -2      1036      1041      1005      2533      1214      1448      1449      3630      3642      3442
 -1      2195    6    0    1
 -2      1535      2489      2545      2551      3975      3976      3977      3978      3864      3979
 -1      2196    6    0    1
 -2       558      2506      2466      2537      3818      3645      3688      3689      3496      3167
 -1      2197    6    0    1
 -2      2466      2507       558      2538      3647      3819      3688      3170      3495      3980
 -1      2198    6    0    1
 -2       560      2467      2511      2540      3690      3613      3831      3691      3164      3490
 -1      2199    6    0    1
 -2      2047      2510      2467      2540      3833      3615      3692      3693      3491      3164
 -1      2200    6    0    1
 -2       560      2508      2467      2539      3830      3612      3690      3981      3489      3162
 -1      2201    6    0    1
 -2      2047      2467      2509      2539      3692      3614      3832      3982      3162      3983
 -1      2202    6    0    1
 -2      1511      2545      2473      2551      3984      3861      3985      3986      3979      3987
 -1      2203    6    0    1
 -2      1038      2514      1017      2554      3795      3497      1460      3798      3469      3062
 -1      2204    6    0    1
 -2       529       481       549      2505       799       815       814      3271      3660      3189
 -1      2205    6    0    1
 -2      1993      2532      2466      2538      3887      3774      3462      3676      3528      3170
 -1      2206    6    0    1
 -2      1993      2023      2024      2532      2433      2245      2432      3887      3621      3655
 -1      2207    6    0    1
 -2       347       333       342      2497       389       391       393      2929      3349      2931
 -1      2208    6    0    1
 -2      1468      1512       497      2496      1688      3257      3988      3943      2934      2940
 -1      2209    6    0    1
 -2       511      1474      1526      2495      3273      1604      3989      2924      2937      3939
 -1      2210    6    0    1
 -2      1023      1505      1483      2493      3684      1782      3990      3681      3685      2608
 -1      2211    6    0    1
 -2      2468      2513       513      2542      3601      3838      3696      3212      3559      3697
 -1      2212    6    0    1
 -2       991      1023      1483      2493      1192      3990      2609      2607      3681      2608
 -1      2213    6    0    1
 -2       513      2512      2468      2543      3836      3600      3696      3991      3540      3214
 -1      2214    6    0    1
 -2      1472      1028       980      2494      3992      1120      3710      3711      3993      3709
 -1      2215    6    0    1
 -2      1028      1472      1531      2494      3992      1710      3994      3993      3711      3995
 -1      2216    6    0    1
 -2       550       498       564      2543       904       901       905      3280      2626      2619
 -1      2217    6    0    1
 -2       973      1507      1467      2498      2593      1776      3996      2598      2596      3686
 -1      2218    6    0    1
 -2      1467      1026       973      2498      3679      1186      3996      3686      3687      2598
 -1      2219    6    0    1
 -2      1048      2541      2502      2549      3343      3609      3997      3344      3259      3931
 -1      2220    6    0    1
 -2       557       483       553      2537       825       826       828      3241      3912      3243
 -1      2221    6    0    1
 -2       562       538       555      2538       842       942       970      3244      3916      3246
 -1      2222    6    0    1
 -2      1537      2496      1536      2504      2933      3256      1808      2636      3367      2967
 -1      2223    6    0    1
 -2      1069       987      1034      2536      1108      1376      1377      3284      3670      3206
 -1      2224    6    0    1
 -2       529       549       559      2539       814       900       835      3272      3191      3240
 -1      2225    6    0    1
 -2      2032      2028      2005      2539      2379      2299      2359      3331      3327      3653
 -1      2226    6    0    1
 -2      2041      2033      1994      2540      2436      2435      2288      3247      3248      3412
 -1      2227    6    0    1
 -2       506       554       551      2540       938       813       937      3414      3250      3251
 -1      2228    6    0    1
 -2      2057      1989      2055      2491      2351      2428      2401      3265      3234      3323
 -1      2229    6    0    1
 -2      1040      2504      2452      2558      3596      2966      3224      3494      3998      3287
 -1      2230    6    0    1
 -2      2051      2035      1991      2537      2358      2284      2429      3254      3255      3920
 -1      2231    6    0    1
 -2      2034      2050      2016      2538      2384      2307      2315      3252      3253      3924
 -1      2232    6    0    1
 -2      2039      2534      2468      2542      3905      3616      3694      3695      3529      3212
 -1      2233    6    0    1
 -2       542       489       574      2542       855       857       856      3278      3941      3279
 -1      2234    6    0    1
 -2      2468      2533      2039      2543      3634      3886      3694      3214      3549      3999
 -1      2235    6    0    1
 -2      2038      2037      2009      2543      2448      2326      2418      3277      2624      2628
 -1      2236    6    0    1
 -2       547      2496       549      2505      3228      2941       817      2991      3409      3189
 -1      2237    6    0    1
 -2      1479       976      2502      2549      4000      4001      4002      4003      4004      3931
 -1      2238    6    0    1
 -2      1989      2021      2055      2535      2427      2094      2428      3236      3678      3326
 -1      2239    6    0    1
 -2      1004      1003      1493      2499      1114      3550      4005      3706      3159      3025
 -1      2240    6    0    1
 -2      1493      1516      1004      2499      1704      3703      4005      3025      3707      3706
 -1      2241    6    0    1
 -2      2462      2512      2494      2550      2788      3370      4006      3033      3034      3914
 -1      2242    6    0    1
 -2      2494      2533      2462      2550      3441      2919      4006      3914      3075      3033
 -1      2243    6    0    1
 -2       523       524       491      2555       865       864       651      3803      3473      3892
 -1      2244    6    0    1
 -2       340       347      2470      2472       400      4007      3663      3400      3302      2587
 -1      2245    6    0    1
 -2      1548      2559      2520      2560      4008      4009      4010      4011      4013      4012
 -1      2246    6    0    1
 -2      1076      2500      1070      2558      3286      4014      1444      3288      3289      4015
 -1      2247    6    0    1
 -2      1526       494       511      2495      3938       618      3989      3939      3935      2924
 -1      2248    6    0    1
 -2      1969      2002      2001      2554      2339      2338      2227      3890      3468      3797
 -1      2249    6    0    1
 -2       412       406       420      2471       445       462       461      3598      3444      3300
 -1      2250    6    0    1
 -2      2031      1984      2015      2547      2412      2160      2413      3457      3780      3841
 -1      2251    6    0    1
 -2       516       570       505      2547       933       932       778      3781      3451      3842
 -1      2252    6    0    1
 -2      2478      2518      2457      2546      3455      2826      4016      3816      3096      3097
 -1      2253    6    0    1
 -2      2457      2519      2478      2546      2823      3899      4016      3097      3099      3816
 -1      2254    6    0    1
 -2      2457      2518      2479      2548      2826      3449      4017      3094      3101      3810
 -1      2255    6    0    1
 -2      2479      2519      2457      2548      3903      2823      4017      3810      3093      3094
 -1      2256    6    0    1
 -2      2020      2040      1967      2542      2332      2329      2331      3274      3275      3974
 -1      2257    6    0    1
 -2      2459      2506      2502      2549      2860      3502      4018      3037      3038      3931
 -1      2258    6    0    1
 -2      2463      2531      2488      2556      2887      3921      4019      3144      3145      3883
 -1      2259    6    0    1
 -2       514      1468       497      2496      3942      3988       702      3937      3943      2940
 -1      2260    6    0    1
 -2      2463      2530      2483      2557      2857      3917      4020      3137      3138      3871
 -1      2261    6    0    1
 -2      1569      1536      1563      2469      1874      1809      1912      2578      2577      3699
 -1      2262    6    0    1
 -2      2483      2531      2463      2557      3927      2887      4020      3871      3149      3137
 -1      2263    6    0    1
 -2       576       578       541      2470       928       877       884      3790      2589      2629
 -1      2264    6    0    1
 -2      2488      2530      2463      2556      3932      2857      4019      3883      3151      3144
 -1      2265    6    0    1
 -2      1518      1476      1533      2555      1637      1847      1849      3802      3926      3132
 -1      2266    6    0    1
 -2      1066      1038      1017      2554      1241      1460      1461      3885      3798      3062
 -1      2267    6    0    1
 -2       408       420       413      2471       472       473       438      3637      3300      3541
 -1      2268    6    0    1
 -2      1479       976      1529      2502      4000      4021      1755      4002      4001      4022
 -1      2269    6    0    1
 -2      1028      2494      1531      2550      3993      3995      3994      4023      3914      4024
 -1      2270    6    0    1
 -2      1051      2520      2559      2561      4025      4009      4026      4027      4029      4028
 -1      2271    6    0    1
 -2      1993      2051      2537      2541      2431      3254      3675      3888      3231      3506
 -1      2272    6    0    1
 -2      1012      1529       976      2502      4030      4021      1165      4031      4022      4001
 -1      2273    6    0    1
 -2      1495      1564      1562      2470      1857      1909      1931      2630      2582      3789
 -1      2274    6    0    1
 -2       557      2506       558      2537      3028      3818       960      3241      3496      3689
 -1      2275    6    0    1
 -2       347       339       333      2472       388       379       389      3302      3627      3492
 -1      2276    6    0    1
 -2      1537      1536      1496      2504      1808      1872      1882      2636      2967      3589
 -1      2277    6    0    1
 -2       555       558      2507      2538       823      3819      3031      3246      3980      3495
 -1      2278    6    0    1
 -2      1993      2050      2532      2538      2305      3041      3887      3676      3253      3528
 -1      2279    6    0    1
 -2       560      2511       554      2540      3831      3110       969      3691      3490      3250
 -1      2280    6    0    1
 -2      2033      2510      2047      2540      3115      3833      2297      3248      3491      3693
 -1      2281    6    0    1
 -2       559      2508       560      2539      3021      3830       838      3240      3489      3981
 -1      2282    6    0    1
 -2      2047      2509      2032      2539      3832      4032      2363      3982      3983      3331
 -1      2283    6    0    1
 -2       340       335       347      2472       386       399       400      3400      3585      3302
 -1      2284    6    0    1
 -2      1029      1484      1528      2501      3509      1749      4033      3054      3065      3908
 -1      2285    6    0    1
 -2       982      1987      1002      2503      3602      4034      1208      3069      3172      3823
 -1      2286    6    0    1
 -2       574       513      2513      2542       954      3838      3043      3279      3697      3559
 -1      2287    6    0    1
 -2      1029      1528       975      2501      4033      3907      1159      3054      3908      3909
 -1      2288    6    0    1
 -2       513       550      2512      2543       847      3047      3836      3991      3280      3540
 -1      2289    6    0    1
 -2      1062      2559      2478      2561      4035      4036      4037      4038      4028      3545
 -1      2290    6    0    1
 -2      2464      2545      2473      2552      4039      3861      4040      4041      3948      3946
 -1      2291    6    0    1
 -2      1059      1058      2545      2552      1438      3944      3951      3954      3947      3948
 -1      2292    6    0    1
 -2      2464      2551      2489      2553      4042      3864      4043      4044      3959      3957
 -1      2293    6    0    1
 -2      2486      2545      2464      2552      3952      4039      4045      3829      3948      4041
 -1      2294    6    0    1
 -2       566       567      2551      2553       925      3955      3969      3972      3958      3959
 -1      2295    6    0    1
 -2      2464      2552      2487      2553      4041      3961      4046      4044      3964      3826
 -1      2296    6    0    1
 -2      2044      2045      2552      2553      2399      3962      3965      3967      3963      3964
 -1      2297    6    0    1
 -2      2486      2552      2464      2553      3829      4041      4045      3968      3964      4044
 -1      2298    6    0    1
 -2      1005      1004      2494      2499      1337      3705      3425      3424      3706      3387
 -1      2299    6    0    1
 -2      2487      2551      2464      2553      3970      4042      4046      3826      3959      4044
 -1      2300    6    0    1
 -2      1467      1550      2493      2498      1801      3381      3682      3686      3405      3403
 -1      2301    6    0    1
 -2      1026      2493      1052      2498      3683      3375      1462      3687      3403      3402
 -1      2302    6    0    1
 -2       980      1005      1004      2494      1338      1337      1117      3709      3425      3705
 -1      2303    6    0    1
 -2      2480      2547       556      2560      4047      4048      4049      4050      3548      4051
 -1      2304    6    0    1
 -2      2464      2545      2489      2551      4039      3976      4043      4042      3979      3864
 -1      2305    6    0    1
 -2      1516      1545      2494      2499      1826      3368      3704      3707      3388      3387
 -1      2306    6    0    1
 -2      1467      1550      1505      2493      1801      1800      1779      3682      3381      3685
 -1      2307    6    0    1
 -2      1026      1023      1052      2493      1189      1463      1462      3683      3681      3375
 -1      2308    6    0    1
 -2      1472      1516      1545      2494      1707      1826      1825      3711      3704      3368
 -1      2309    6    0    1
 -2       155      2015      1984       505      2155      2160      2159       774      3840      3839
 -1      2310    6    0    1
 -2       273      1025       998      2007      1218      1223      1222      2207      3734      3141
 -1      2311    6    0    1
 -2       996      1968       277      1018      3736      2217      1234      1235      3735      1230
 -1      2312    6    0    1
 -2      2007       273      1025      1985      2207      1218      3734      2209      2205      3714
 -1      2313    6    0    1
 -2      1980       531       141      2004      3855       732      2117      2118      3747      2113
 -1      2314    6    0    1
 -2      1968       996       277      2000      3736      1234      2217      2221      3134      2219
 -1      2315    6    0    1
 -2       502       531       141      1980       736       732       734      3856      3855      2117
 -1      2316    6    0    1
 -2      1985       272       995      2012      2204      1215      3712      2206      2202      3067
 -1      2317    6    0    1
 -2       138      2009      1966       498      2104      2109      2108       723      2932      3484
 -1      2318    6    0    1
 -2       272       995      1025      1985      1215      1220      1219      2204      3712      3714
 -1      2319    6    0    1
 -2      1467      1023       227      1026      3680      1187      1774      3679      1189      1185
 -1      2320    6    0    1
 -2       532       138      1966       498       725      2108      3485       727       723      3484
 -1      2321    6    0    1
 -2       531       501       140      2003       733       729       731      3745      3146      2110
 -1      2322    6    0    1
 -2       140       531      2003      2004       731      3745      2110      2114      3747      2115
 -1      2323    6    0    1
 -2        89      1519      1491       515      1668      1670      1666       679      3847      3807
 -1      2324    6    0    1
 -2      1023      1467       227      1505      3680      1774      1187      3684      1779      1778
 -1      2325    6    0    1
 -2       999       276      2014      1968      1227      2214      3851      3852      2216      2218
 -1      2326    6    0    1
 -2       276       999      1018      1968      1227      1232      1231      2216      3852      3735
 -1      2327    6    0    1
 -2       505      1984       155       516      3839      2159       774       778      3779       776
 -1      2328    6    0    1
 -2       160       485       535      1973       791       793       789      2174      2964      2962
 -1      2329    6    0    1
 -2      1973       535       160      2017      2962       789      2174      2175      2951      2170
 -1      2330    6    0    1
 -2        93      1480       533       530      1680      3522       691       695      3524       696
 -1      2331    6    0    1
 -2        93      1480      1522       533      1680      1682      1678       691      3522      3515
 -1      2332    6    0    1
 -2      2018       290      1033       989      2258      1273      3843      3844      1269      1274
 -1      2333    6    0    1
 -2       158       506       526      1994       785       787       783      2168      3593      3716
 -1      2334    6    0    1
 -2        89      1519       515       509      1668      3847       679       683      3849       684
 -1      2335    6    0    1
 -2      1959       158       526      1994      2164       783      3718      2169      2168      3716
 -1      2336    6    0    1
 -2      1997       294       978      1031      2270      1285      3526      3520      1281      1286
 -1      2337    6    0    1
 -2       294      1997      1960      1031      2270      2272      2268      1281      3520      3510
 -1      2338    6    0    1
 -2       290      2018      1963       989      2258      2260      2256      1269      3844      3813
 -1      2339    6    0    1
 -2      1507      1020       225      1490      3720      1179      1772      1773      3723      1768
 -1      2340    6    0    1
 -2      1523       224       977      1490      1765      1176      3140      1770      1769      3725
 -1      2341    6    0    1
 -2       225       973      1020      1507      1181      1183      1179      1772      2593      3720
 -1      2342    6    0    1
 -2       224      1020       977      1490      1178      1180      1176      1769      3723      3725
 -1      2343    6    0    1
 -2       526      2013       157      1959      3722      2161       782      3718      2166      2165
 -1      2344    6    0    1
 -2      1026       973       226      1467      1186      1182      1184      3679      3996      1775
 -1      2345    6    0    1
 -2      2019      1972       287      1019      2251      2247      2249      3726      3301      1260
 -1      2346    6    0    1
 -2      1467       973       226      1507      3996      1182      1775      1776      2593      1771
 -1      2347    6    0    1
 -2      2013       526       157       484      3722       782      2161      3139       784       780
 -1      2348    6    0    1
 -2      1019       287      2019       994      1260      2249      3726      1265      1264      3728
 -1      2349    6    0    1
 -2       508        86      1497       539       670      1657      3022       675       674      3730
 -1      2350    6    0    1
 -2      1465      1497        86       539      1661      1657      1659      3732      3730       674
 -1      2351    6    0    1
 -2       283      1977      2008       979      2237      2239      2235      1248      3739      3741
 -1      2352    6    0    1
 -2      1977       283      1013       979      2237      1252      3053      3739      1248      1253
 -1      2353    6    0    1
 -2       547       549       481      2505       817       815       816      2991      3189      3660
 -1      2354    6    0    1
 -2      2038      2039      2533      2543      2322      3886      3072      3277      3999      3549
 -1      2355    6    0    1
 -2      2039      2040      2534      2542      2449      3124      3905      3695      3275      3529
 -1      2356    6    0    1
 -2      2473      2545      2464      2551      3861      4039      4040      3987      3979      4042
 -1      2357    6    0    1
 -2      1482      1021       214      1534      3873      1146      1739      1740      3785      1735
 -1      2358    6    0    1
 -2      2502      2541      2459      2549      3609      2989      4018      3931      3259      3037
 -1      2359    6    0    1
 -2        82      1521      1471       518      1647      1649      1645       658      3743      3749
 -1      2360    6    0    1
 -2        82      1521       518       536      1647      3743       658       662      3023       663
 -1      2361    6    0    1
 -2      1511      1535      2545      2551      1950      3977      3984      3986      3978      3979
 -1      2362    6    0    1
 -2      1505       228      1023      1483      1777      1188      3684      1782      1781      3990
 -1      2363    6    0    1
 -2        76       490       522      1485       640       645       644      1629      3758      3158
 -1      2364    6    0    1
 -2      1471       496        81       518      3756       655      1644      3749       660       659
 -1      2365    6    0    1
 -2      1502       496        81      1471      3175       655      1642      1646      3756      1644
 -1      2366    6    0    1
 -2      1975       979       282      2008      3757      1249      2232      2236      3741      2234
 -1      2367    6    0    1
 -2       520      1469        84       482      3530      1651       668       669      4052       664
 -1      2368    6    0    1
 -2      1469       520        84      1498      3530       668      1651      1655      3531      1653
 -1      2369    6    0    1
 -2      1472      1028       204       980      3992      1118      1705      3710      1120      1116
 -1      2370    6    0    1
 -2       507      1992       151       519      2958      2147       762       766      4053       764
 -1      2371    6    0    1
 -2      1962      1992       151       507      2148      2147      2143      2957      2958       762
 -1      2372    6    0    1
 -2        72       488      1509      1473       628      3751      1617      1615      3753      1619
 -1      2373    6    0    1
 -2       521        72       488      1509       632       628       633      3161      1617      3751
 -1      2374    6    0    1
 -2       991      1023       228      1483      1192      1188      1190      2609      3990      1781
 -1      2375    6    0    1
 -2       979      1975       282      1010      3757      2232      1249      1250      3174      1245
 -1      2376    6    0    1
 -2      1028      1472       204      1531      3992      1705      1118      3994      1710      1709
 -1      2377    6    0    1
 -2      1021      1482       214       990      3873      1739      1146      1150      3872      1148
 -1      2378    6    0    1
 -2       490        76      1506      1485       640      1627      3768      3758      1629      1631
 -1      2379    6    0    1
 -2      2025      2554      2488      2562      4054      4055      4056      4057      3582      4058
 -1      2380    6    0    1
 -2      1473        71       534      1514      1614       625      3755      1616      1612      3029
 -1      2381    6    0    1
 -2       534       488        71      1473       630       629       625      3755      3753      1614
 -1      2382    6    0    1
 -2      1002      1987      1988      2503      4034      2194      3822      3823      3172      3788
 -1      2383    6    0    1
 -2       992      2023       285      1009      3620      2241      1258      1259      3619      1254
 -1      2384    6    0    1
 -2       975      1529       218      1012      3906      1751      1158      1162      4030      1160
 -1      2385    6    0    1
 -2      2488      2555       546      2562      4059      4060      4061      4058      3580      4062
 -1      2386    6    0    1
 -2      1986       548       136      2011      3058       717      2102      2103      3057      2098
 -1      2387    6    0    1
 -2      1517       487        69      1492      3554       623      1606      1610      4063      1608
 -1      2388    6    0    1
 -2       545      1978       144      2026      3764      2122       743      3765      2127      2126
 -1      2389    6    0    1
 -2      1548      1540      2559      2560      1942      4064      4008      4011      4065      4013
 -1      2390    6    0    1
 -2      1051      2559      1062      2561      4026      4035      1301      4027      4028      4038
 -1      2391    6    0    1
 -2      1499      1529      2501      2502      1936      3910      3437      3500      4022      3501
 -1      2392    6    0    1
 -2      1978       545       144       499      3764       743      2122      3184       745       741
 -1      2393    6    0    1
 -2       512       487        69      1517       624       623       619      3553      3554      1606
 -1      2394    6    0    1
 -2       203      1516      1472       980      1702      1707      1706      1115      3708      3710
 -1      2395    6    0    1
 -2       490        75       537      1506       641       637       642      3768      1626      3867
 -1      2396    6    0    1
 -2      1506        75       537      1510      1626       637      3867      1628      1624      3897
 -1      2397    6    0    1
 -2      1516       203      1004       980      1702      1113      3703      3708      1115      1117
 -1      2398    6    0    1
 -2      1014      1532       207       985      3761      1718      1125      1129      3760      1127
 -1      2399    6    0    1
 -2       147       517       500      1979       752       754       750      2131      3894      3880
 -1      2400    6    0    1
 -2       517       147      1995      1979       752      2135      3893      3894      2131      2136
 -1      2401    6    0    1
 -2       202      1493      1004      1003      1699      4005      1112      1110      3550      1114
 -1      2402    6    0    1
 -2      1532      1558       208       985      1722      1721      1717      3760      3865      1128
 -1      2403    6    0    1
 -2      1988      1989      1971      2503      2349      2348      2191      3788      3366      3538
 -1      2404    6    0    1
 -2      1030       208      1558       985      1130      1721      3876      1132      1128      3865
 -1      2405    6    0    1
 -2      1540      2479      2559      2560      4066      4067      4064      4065      3547      4013
 -1      2406    6    0    1
 -2      1508       211      1015      1016      1726      1137      3194      3772      1139      1141
 -1      2407    6    0    1
 -2       207      1486      1532      1014      1714      1719      1718      1125      3157      3761
 -1      2408    6    0    1
 -2      1493      1516       202      1004      1704      1703      1699      4005      3703      1112
 -1      2409    6    0    1
 -2      2010      1036       270      1965      3629      1213      2196      2200      3628      2198
 -1      2410    6    0    1
 -2       279      1038      1066      2001      1236      1241      1240      2223      3796      3884
 -1      2411    6    0    1
 -2      1548      2520      2480      2560      4010      4068      4069      4011      4012      4050
 -1      2412    6    0    1
 -2       211      1508      1487      1016      1726      1731      1730      1139      3772      3776
 -1      2413    6    0    1
 -2      2001      1066       279      1969      3884      1240      2223      2227      3889      2225
 -1      2414    6    0    1
 -2       975      1012      1061      2502      1162      1313      1312      4070      4031      3607
 -1      2415    6    0    1
 -2      1487       212      1016       984      1729      1140      3776      3770      1142      1144
 -1      2416    6    0    1
 -2      2043      2547      2477      2561      4071      4072      4073      4074      3544      4075
 -1      2417    6    0    1
 -2       523       491        78      1518       651       650       646      3801      3891      1633
 -1      2418    6    0    1
 -2       212      1487      1555       984      1729      1734      1733      1142      3770      2565
 -1      2419    6    0    1
 -2      1476        78       491      1518      1635       650      3925      1637      1633      3891
 -1      2420    6    0    1
 -2       570       556      2547      2560       808      4048      3451      3546      4051      3548
 -1      2421    6    0    1
 -2      2031      2547      2043      2561      3457      4071      2439      3543      3544      4074
 -1      2422    6    0    1
 -2      1963       289       989      2561      2255      1270      3813      4076      4078      4077
 -1      2423    6    0    1
 -2       539        87      1465      2560       673      1660      3732      4079      4081      4080
 -1      2424    6    0    1
 -2      1022      2509      1047      2544      4082      3503      1327      4083      3505      3264
 -1      2425    6    0    1
 -2       975      1061      2501      2502      1312      3665      3909      4070      3607      3501
 -1      2426    6    0    1
 -2      1976      2032      2509      2544      2378      4032      4084      4085      3332      3505
 -1      2427    6    0    1
 -2      2002      2554      2025      2562      3468      4054      2340      3581      3582      4057
 -1      2428    6    0    1
 -2      1040      1076      1070      2558      1380      1444      1311      3494      3288      4015
 -1      2429    6    0    1
 -2      1002       986      1034      2503      1205      1368      1367      3823      3539      3358
 -1      2430    6    0    1
 -2      1496       991       229      1483      3784      1191      1784      1785      2609      1780
 -1      2431    6    0    1
 -2       524       546      2555      2562       867      4060      3473      3578      4062      3580
 -1      2432    6    0    1
 -2      1555      1534       213      1021      1737      1736      1732      3782      3785      1145
 -1      2433    6    0    1
 -2       548      1986       136       543      3058      2102       717       721      3200       719
 -1      2434    6    0    1
 -2       984      1555       213      1021      2565      1732      1143      1147      3782      1145
 -1      2435    6    0    1
 -2       289      1027       989      2561      1266      1271      1270      4078      4086      4077
 -1      2436    6    0    1
 -2       289      1963      1996      2561      2255      2257      2253      4078      4076      4087
 -1      2437    6    0    1
 -2       539       479        87      2560       678       677       673      4079      4088      4081
 -1      2438    6    0    1
 -2        87      1520      1465      2560      1662      1664      1660      4081      4089      4080
 -1      2439    6    0    1
 -2      1497        85       508      2506      1656       671      3022      2858      4090      2864
 -1      2440    6    0    1
 -2      1500       480        92      2511      3949       688      1675      3314      3308      4091
 -1      2441    6    0    1
 -2      1008       293      1998      2510      1278      2265      3950      3310      4092      3312
 -1      2442    6    0    1
 -2      1521       536        83      2507      3023       661      1648      2841      2862      4093
 -1      2443    6    0    1
 -2        94       497      1512      2508       698      3257      1683      4094      2868      2811
 -1      2444    6    0    1
 -2      1976       295      1022      2509      2273      1288      4095      4084      4096      4082
 -1      2445    6    0    1
 -2       534      1514        70      2512      3029      1611       626      2854      2786      4097
 -1      2446    6    0    1
 -2       500       146      1979      2562       749      2132      3880      4098      4100      4099
 -1      2447    6    0    1
 -2       494      1562        66       576      3934      1597       614       615      3791       610
 -1      2448    6    0    1
 -2      1058      2523      2473      2552      4101      3558      3945      3947      4102      3946
 -1      2449    6    0    1
 -2       500       573       146      2562       751       747       749      4098      4103      4100
 -1      2450    6    0    1
 -2      1979       146      2052      2562      2132      2128      2133      4099      4100      4104
 -1      2451    6    0    1
 -2      1006       230      1481      1496      1194      1787      3587      3586      1783      1788
 -1      2452    6    0    1
 -2       988      1006       230      1481      1198      1194      1196      3291      3587      1787
 -1      2453    6    0    1
 -2      1041      1036       270      2010      1214      1213      1209      3641      3629      2196
 -1      2454    6    0    1
 -2       995      2012       271      2533      3067      2201      1216      2923      2917      4105
 -1      2455    6    0    1
 -2      1562       494        66      1526      3934       614      1597      1601      3938      1599
 -1      2456    6    0    1
 -2        68      1474       511      2513      1603      3273       616      4106      2880      2804
 -1      2457    6    0    1
 -2      1512      1480        94      2508      1685      1681      1683      2811      3523      4094
 -1      2458    6    0    1
 -2       978      1022       295      2509      1289      1288      1284      3527      4082      4096
 -1      2459    6    0    1
 -2      1497      1498        85      2506      1658      1654      1656      2858      3533      4090
 -1      2460    6    0    1
 -2      2023       992       285      2024      3620      1258      2241      2245      3654      2243
 -1      2461    6    0    1
 -2      1529       975       218      1528      3906      1158      1751      1752      3907      1747
 -1      2462    6    0    1
 -2      1521        83      1469      2507      1648      1650      1652      2841      4093      3817
 -1      2463    6    0    1
 -2      1055      2525      2481      2550      4107      3560      2729      3074      4108      3410
 -1      2464    6    0    1
 -2       536       482        83      2507       666       665       661      2862      3821      4093
 -1      2465    6    0    1
 -2       520       508        85      2506       672       671       667      3534      2864      4090
 -1      2466    6    0    1
 -2      1522      1500        92      2511      1679      1675      1677      3518      3314      4091
 -1      2467    6    0    1
 -2        92       480       533      2511       688       693       692      4091      3308      3519
 -1      2468    6    0    1
 -2       293      1960      1998      2510      2267      2269      2265      4092      3513      3312
 -1      2469    6    0    1
 -2      1008      1031       293      2510      1283      1282      1278      3310      3514      4092
 -1      2470    6    0    1
 -2      1544      2480      2520      2549      2720      4068      4109      3036      3396      4110
 -1      2471    6    0    1
 -2      1053      2475      2516      2546      2706      3564      4111      3098      3392      4112
 -1      2472    6    0    1
 -2      2029      2516      2476      2546      4113      3563      2701      3095      4112      3394
 -1      2473    6    0    1
 -2      2476      2517       552      2548      3566      4114      2712      3395      4115      3100
 -1      2474    6    0    1
 -2      1538      2517      2475      2548      4116      3565      2695      3092      4115      3393
 -1      2475    6    0    1
 -2      2480      2515       556      2547      3567      4117      4049      4047      4118      4048
 -1      2476    6    0    1
 -2      1050      2520      2477      2549      4119      4120      2995      3258      4110      3391
 -1      2477    6    0    1
 -2      2043      2515      2477      2547      4121      3562      4073      4071      4118      4072
 -1      2478    6    0    1
 -2      1014       985      1060      2473      1129      1363      1362      2691      3763      2692
 -1      2479    6    0    1
 -2       567      2524      2489      2553      4122      3576      3956      3958      4123      3957
 -1      2480    6    0    1
 -2      1059      2529      2486      2545      4124      3575      3953      3951      4125      3952
 -1      2481    6    0    1
 -2      1509      1560      1473      2474      1831      1830      1619      2653      2654      3754
 -1      2482    6    0    1
 -2      1473      1515      1514      2474      1833      1832      1616      3754      2648      2649
 -1      2483    6    0    1
 -2      1492        70      1514      2512      1609      1611      1613      3834      4097      2786
 -1      2484    6    0    1
 -2      2520      2559      2458      2560      4009      4126      4127      4012      4013      3618
 -1      2485    6    0    1
 -2        94       530       497      2508       694       699       698      4094      3525      2868
 -1      2486    6    0    1
 -2      1976      1997       295      2509      2275      2271      2273      4084      3521      4096
 -1      2487    6    0    1
 -2       566      2528      2487      2551      4128      3573      3971      3969      4129      3970
 -1      2488    6    0    1
 -2       534        70       487      2512       626       622       627      2854      4097      3837
 -1      2489    6    0    1
 -2      2045      2487      2523      2552      3960      3572      4130      3962      3961      4102
 -1      2490    6    0    1
 -2       534       564       488      2474       852       851       630      2676      2677      3752
 -1      2491    6    0    1
 -2      1521      1543      1471      2482      1823      1822      1649      2672      2673      3750
 -1      2492    6    0    1
 -2      1554      2502      1499      2506      3930      3500      1934      3051      3502      3435
 -1      2493    6    0    1
 -2      2486      2524      2044      2553      3574      4131      3966      3968      4123      3967
 -1      2494    6    0    1
 -2      1062      2519      2478      2559      4132      3899      4037      4035      4133      4036
 -1      2495    6    0    1
 -2      1540      2479      2519      2559      4066      3903      4134      4064      4067      4133
 -1      2496    6    0    1
 -2      2482      2522      1552      2557      3568      4135      2775      3407      4136      3136
 -1      2497    6    0    1
 -2       488       565       521      2474       850       849       633      3752      2732      2733
 -1      2498    6    0    1
 -2      2012      1985      2037      2481      2206      2417      2416      2723      3713      2725
 -1      2499    6    0    1
 -2       995      1055      1025      2481      1415      1414      1220      2728      2729      3715
 -1      2500    6    0    1
 -2      1972      2019      2035      2477      2251      2355      2354      3013      3727      2985
 -1      2501    6    0    1
 -2      1538      1490      1523      2475      1915      1770      1916      2695      3724      2697
 -1      2502    6    0    1
 -2      1044      1020       973      2475      1302      1183      1303      2703      3721      2594
 -1      2503    6    0    1
 -2      1959      2013      2029      2476      2166      2291      2290      3719      2700      2701
 -1      2504    6    0    1
 -2       553       539       508      2480       946       675       947      2715      3731      2717
 -1      2505    6    0    1
 -2       506       551       526      2476       937       936       787      3413      3269      3717
 -1      2506    6    0    1
 -2      1959      2041      1994      2476      2289      2288      2169      3719      3266      3411
 -1      2507    6    0    1
 -2      1490      1547      1507      2475      1914      1913      1773      3724      2708      2595
 -1      2508    6    0    1
 -2      1020      1053       977      2475      1325      1324      1180      3721      2706      2707
 -1      2509    6    0    1
 -2       484       526       552      2476       784       832       831      2711      3717      2712
 -1      2510    6    0    1
 -2      1050       994      1019      2477      1409      1265      1410      2995      3729      3015
 -1      2511    6    0    1
 -2      1544      1497      1465      2480      1790      1661      1791      2720      2721      3733
 -1      2512    6    0    1
 -2      1056       998      1025      2481      1431      1223      1432      2682      2683      3715
 -1      2513    6    0    1
 -2      2007      2042      1985      2481      2415      2414      2209      2687      2688      3713
 -1      2514    6    0    1
 -2       510       133      2055       493       710      2089      3671       712       708      3324
 -1      2515    6    0    1
 -2       518       562       536      2482       959       958       663      3744      2737      2738
 -1      2516    6    0    1
 -2      1533      1555      1487      2490      1906      1734      1904      2776      2566      3771
 -1      2517    6    0    1
 -2       569       522       490      2489       859       645       860      2768      2769      3759
 -1      2518    6    0    1
 -2      1971       986       267      1988      3537      1200      2187      2191      3787      2189
 -1      2519    6    0    1
 -2      2049      2485      2526      2556      2892      3571      4137      3143      3430      4138
 -1      2520    6    0    1
 -2      1502      1471      1552      2482      1646      1821      1820      2773      3750      2775
 -1      2521    6    0    1
 -2       512        68       511      2513       620       616       621      3557      4106      2804
 -1      2522    6    0    1
 -2      1010      1064       979      2485      1333      1332      1250      2795      2796      3740
 -1      2523    6    0    1
 -2      1493      1003       201      2536      3550      1109      1700      3026      3160      4139
 -1      2524    6    0    1
 -2      1064      2522      2485      2557      4140      3570      2796      3148      4136      3429
 -1      2525    6    0    1
 -2       571      2526      2482      2556      4141      3569      2872      3150      4138      3418
 -1      2526    6    0    1
 -2      1063       996      1018      2486      1419      1235      1420      2755      2756      3738
 -1      2527    6    0    1
 -2      2000      2048      1968      2486      2334      2333      2221      2760      2761      3737
 -1      2528    6    0    1
 -2      1967       489       134      2535      4142       713      2096      3973      3940      4143
 -1      2529    6    0    1
 -2      2034      2008      1977      2485      2380      2239      2381      2746      3742      2747
 -1      2530    6    0    1
 -2      1515      2474      2525      2550      2648      3561      4144      3032      3390      4108
 -1      2531    6    0    1
 -2       979      1049      1013      2485      1335      1334      1253      3740      2741      2742
 -1      2532    6    0    1
 -2      2003      2046      2004      2487      2446      2445      2115      2750      2751      3748
 -1      2533    6    0    1
 -2       568       501       531      2487       916       733       917      2764      2765      3746
 -1      2534    6    0    1
 -2       268      1002       982      1987      1203      1208      1207      2192      4034      3602
 -1      2535    6    0    1
 -2      1532      1486      1559      2473      1719      1900      1899      3762      2640      2641
 -1      2536    6    0    1
 -2      2055      2021       133       510      2094      2093      2089      3671      3677       710
 -1      2537    6    0    1
 -2       200      1478      1494      1069      1693      1698      1697      1104      3283      3648
 -1      2538    6    0    1
 -2      1965       271      2012      2533      2199      2201      2203      3632      4105      2917
 -1      2539    6    0    1
 -2       984      1017      1016      2490      1358      1357      1144      2567      2884      3773
 -1      2540    6    0    1
 -2       278      2000       996      2514      2220      3134      1233      4145      2850      2845
 -1      2541    6    0    1
 -2      1021      1039       984      2483      1361      1360      1147      3783      2888      2569
 -1      2542    6    0    1
 -2       480      1500        91      2517      3949      1674       689      3309      3315      4146
 -1      2543    6    0    1
 -2      1998       292      1008      2516      2264      1279      3950      3313      4147      3311
 -1      2544    6    0    1
 -2       223      1523       977      2519      1766      3140      1175      4148      2822      2827
 -1      2545    6    0    1
 -2       221      1501       972      2520      1760      4149      1169      4150      4152      4151
 -1      2546    6    0    1
 -2      2013       484       156      2518      3139       779      2162      2825      2830      4153
 -1      2547    6    0    1
 -2       153       483      1991      2515       768      4154      2149      4155      3911      3919
 -1      2548    6    0    1
 -2       501       139      2003      2521       728      2111      3146      2831      4156      2807
 -1      2549    6    0    1
 -2       216      1484      1029      2522      1745      3509      1154      4157      3066      3055
 -1      2550    6    0    1
 -2       998       274      2007      2523      1221      2208      3141      2816      4158      2817
 -1      2551    6    0    1
 -2       499       143      1978      2524       740      2123      3184      2835      4159      2837
 -1      2552    6    0    1
 -2      2025      2531      2488      2554      4160      3921      4056      4054      4161      4055
 -1      2553    6    0    1
 -2      2016       538       149      2526      4162       758      2141      3923      3915      4163
 -1      2554    6    0    1
 -2      1528      1499      1529      2501      1935      1936      1752      3908      3437      3910
 -1      2555    6    0    1
 -2       573      2052       146      2562      4164      2128       747      4103      4104      4100
 -1      2556    6    0    1
 -2      1474        68      1517      2513      1603      1605      1607      2880      4106      3555
 -1      2557    6    0    1
 -2      2008      2049      1975      2485      2373      2372      2236      3742      2892      2893
 -1      2558    6    0    1
 -2       496       571       518      2482       892       891       660      2871      2872      3744
 -1      2559    6    0    1
 -2       986      1002       267      1988      1205      1204      1200      3787      3822      2189
 -1      2560    6    0    1
 -2       577       481       163      1961       802       798       800      3659      3658      2179
 -1      2561    6    0    1
 -2      2056       577       163      1961      3351       800      2183      2184      3659      2179
 -1      2562    6    0    1
 -2      1535      2489      2529      2545      3975      3583      4165      3977      3976      4125
 -1      2563    6    0    1
 -2        77      1485       522      2527      1630      3158       643      4166      2907      2846
 -1      2564    6    0    1
 -2      1016      1065      1015      2490      1458      1457      1141      3773      2791      2792
 -1      2565    6    0    1
 -2      2483      2531      1039      2554      3927      4167      2888      3432      4161      3063
 -1      2566    6    0    1
 -2       991      1496       229      1006      3784      1784      1191      1195      3586      1193
 -1      2567    6    0    1
 -2      2488      2530       546      2555      3932      4168      4061      4059      4169      4060
 -1      2568    6    0    1
 -2       982       269      1987      2534      1206      2193      3602      3070      4170      3173
 -1      2569    6    0    1
 -2       514        96      1563       495       700      1689      3936       705       704      3700
 -1      2570    6    0    1
 -2       989      2478      1963      2561      3812      3811      3813      4077      3545      4076
 -1      2571    6    0    1
 -2       539      1465      2480      2560      3732      3733      3731      4079      4080      4050
 -1      2572    6    0    1
 -2      1480       530        94      2508      3524       694      1681      3523      3525      4094
 -1      2573    6    0    1
 -2       978       295      1997      2509      1284      2271      3526      3527      4096      3521
 -1      2574    6    0    1
 -2       520        85      1498      2506       667      1654      3531      3534      4090      3533
 -1      2575    6    0    1
 -2        83       482      1469      2507       665      4052      1650      4093      3821      3817
 -1      2576    6    0    1
 -2       410       413       420      2469       474       473       478      3307      3365      3299
 -1      2577    6    0    1
 -2      1534      1555      1504      2483      1737      1946      1947      3786      2570      2734
 -1      2578    6    0    1
 -2       987       200      1494      1069      1106      1697      3669      1108      1104      3648
 -1      2579    6    0    1
 -2      2053      2026      1978      2484      2387      2127      2388      2784      3767      2785
 -1      2580    6    0    1
 -2       499       545       572      2484       745       909       908      2779      3766      2781
 -1      2581    6    0    1
 -2      1511      2473      2528      2551      3985      3577      4171      3986      3987      4129
 -1      2582    6    0    1
 -2       293      1031      1960      2510      1282      3510      2267      4092      3514      3513
 -1      2583    6    0    1
 -2        92       533      1522      2511       692      3515      1677      4091      3519      3518
 -1      2584    6    0    1
 -2      1504      2530      2483      2555      4172      3917      2734      3131      4169      3431
 -1      2585    6    0    1
 -2      1015       210      1508      2529      1136      1727      3194      2838      4173      2663
 -1      2586    6    0    1
 -2      1492       487        70      2512      4063       622      1609      3834      3837      4097
 -1      2587    6    0    1
 -2      1486      1014       206      2525      3157      1124      1715      2644      2820      4174
 -1      2588    6    0    1
 -2       496      1502        80      2530      3175      1641       656      2909      2855      4175
 -1      2589    6    0    1
 -2       521        73      1509      2528       631      1618      3161      2805      4176      2666
 -1      2590    6    0    1
 -2       481       529       162      2005       799       795       797      3804      3651      2176
 -1      2591    6    0    1
 -2       278       996      1038      2514      1233      1238      1237      4145      2845      3795
 -1      2592    6    0    1
 -2      1526       511        67      1474      3989       617      1600      1604      3273      1602
 -1      2593    6    0    1
 -2      1485      1551      1506      2489      1893      1892      1631      2875      2876      3769
 -1      2594    6    0    1
 -2      1549      1487      1508      2490      1902      1731      1903      2678      3771      2660
 -1      2595    6    0    1
 -2      1010      1975       281      2531      3174      2231      1246      2886      2920      4177
 -1      2596    6    0    1
 -2        77       522       523      2527       643       648       647      4166      2846      3800
 -1      2597    6    0    1
 -2      1563      1468        96       514      1691      1687      1689      3936      3942       700
 -1      2598    6    0    1
 -2      2000       278      2001      2514      2220      2222      2224      2850      4145      3794
 -1      2599    6    0    1
 -2      1468      1512        95       497      1688      1684      1686      3988      3257       697
 -1      2600    6    0    1
 -2       512      1517        68      2513      3553      1605       620      3557      3555      4106
 -1      2601    6    0    1
 -2       480        91       527      2517       689       685       690      3309      4146      4178
 -1      2602    6    0    1
 -2      1500      1466        91      2517      1676      1672      1674      3315      4179      4146
 -1      2603    6    0    1
 -2      1998      1983       292      2516      2266      2262      2264      3313      4180      4147
 -1      2604    6    0    1
 -2       221       972      1032      2520      1169      1171      1167      4150      4151      4181
 -1      2605    6    0    1
 -2       993      1008       292      2516      1280      1279      1275      4182      3311      4147
 -1      2606    6    0    1
 -2      1984      2013       156      2518      2163      2162      2158      3777      2825      4153
 -1      2607    6    0    1
 -2      1501       221      1524      2520      1760      1756      1761      4152      4150      4183
 -1      2608    6    0    1
 -2      1523       223      1470      2519      1766      1762      1767      2822      4148      4184
 -1      2609    6    0    1
 -2       223       977      1007      2519      1175      1177      1173      4148      2827      4185
 -1      2610    6    0    1
 -2       156       484       516      2518       779       781       777      4153      2830      3778
 -1      2611    6    0    1
 -2       153       540       483      2515       770       772       768      4155      4186      3911
 -1      2612    6    0    1
 -2       153      1991      1958      2515      2149      2154      2153      4155      3919      4187
 -1      2613    6    0    1
 -2      1966      2003       139      2521      2112      2111      2107      3487      2807      4156
 -1      2614    6    0    1
 -2       501       532       139      2521       730       726       728      2831      3486      4156
 -1      2615    6    0    1
 -2       216      1029      1011      2522      1154      1156      1152      4157      3055      4188
 -1      2616    6    0    1
 -2      1513      1484       216      2522      1746      1745      1741      4189      3066      4157
 -1      2617    6    0    1
 -2       274       998      1024      2523      1221      1226      1225      4158      2816      4190
 -1      2618    6    0    1
 -2       274      1970      2007      2523      2210      2212      2208      4158      4191      2817
 -1      2619    6    0    1
 -2       143      1999      1978      2524      2119      2124      2123      4159      4192      2837
 -1      2620    6    0    1
 -2       499       525       143      2524       742       738       740      2835      4193      4159
 -1      2621    6    0    1
 -2      2010      1987       269      2534      2197      2193      2195      3643      3173      4170
 -1      2622    6    0    1
 -2       486       149       538      2526       756       758       760      4194      4163      3915
 -1      2623    6    0    1
 -2       981       206      1014      2525      1122      1124      1126      4195      4174      2820
 -1      2624    6    0    1
 -2      1015       983       210      2529      1138      1134      1136      2838      4196      4173
 -1      2625    6    0    1
 -2      1964      2016       149      2526      2142      2141      2137      4197      3923      4163
 -1      2626    6    0    1
 -2      1503        80      1502      2530      1639      1641      1643      4198      4175      2855
 -1      2627    6    0    1
 -2       289      1996      1027      2561      2253      4199      1266      4078      4087      4086
 -1      2628    6    0    1
 -2        87       479      1520      2560       677      4200      1662      4081      4088      4089
 -1      2629    6    0    1
 -2      2477      2520      1051      2561      4120      4025      4201      4075      4029      4027
 -1      2630    6    0    1
 -2      1036       995       271      2533      1217      1216      1212      3630      2923      4105
 -1      2631    6    0    1
 -2      1518      1485        77      2527      1634      1630      1632      3799      2907      4166
 -1      2632    6    0    1
 -2       997      1010       281      2531      1247      1246      1242      4202      2886      4177
 -1      2633    6    0    1
 -2       268      1002      1987      1988      1203      4034      2192      2190      3822      2194
 -1      2634    6    0    1
 -2       521       492        73      2528       636       635       631      2805      4203      4176
 -1      2635    6    0    1
 -2       210      1475      1508      2529      1723      1728      1727      4173      4204      2663
 -1      2636    6    0    1
 -2       342       338       337      2491       403       397       404      2972      3508      2973
 -1      2637    6    0    1
 -2      1477      1509        73      2528      1622      1618      1620      4205      2666      4176
 -1      2638    6    0    1
 -2      1530      1486       206      2525      1716      1715      1711      4206      2644      4174
 -1      2639    6    0    1
 -2       281      1975      2006      2531      2231      2233      2229      4177      2920      4207
 -1      2640    6    0    1
 -2      1979      2488       500      2562      3879      3878      3880      4099      4058      4098
 -1      2641    6    0    1
 -2      1038      2001       278      2514      3796      2222      1237      3795      3794      4145
 -1      2642    6    0    1
 -2       528       496        80      2530       657       656       652      4208      2909      4175
 -1      2643    6    0    1
 -2       483      1991      2515      2537      4154      3919      3911      3912      3920      3337
 -1      2644    6    0    1
 -2       987       201      1003      2536      1107      1109      1111      3670      4139      3160
 -1      2645    6    0    1
 -2      2016       538      2526      2538      4162      3915      3923      3924      3916      3340
 -1      2646    6    0    1
 -2       982      1041       269      2534      1211      1210      1206      3070      3644      4170
 -1      2647    6    0    1
 -2      2464      2487      2473      2528      4046      4209      4040      4210      3573      3577
 -1      2648    6    0    1
 -2      2474      2481      2462      2521      4211      2724      2650      3233      3232      2617
 -1      2649    6    0    1
 -2       514       547       495      2496       886       885       705      3937      3228      3701
 -1      2650    6    0    1
 -2      2457      2476      2475      2516      2702      4212      2696      4213      3563      3564
 -1      2651    6    0    1
 -2      2475      2476      2457      2517      4212      2702      2696      3565      3566      4214
 -1      2652    6    0    1
 -2      2477      2480      2458      2515      4215      4216      4217      3562      3567      4218
 -1      2653    6    0    1
 -2      2477      2480      2459      2520      4215      2716      2986      4120      4068      4219
 -1      2654    6    0    1
 -2      2478      2479      2458      2519      4220      3617      3591      3899      3903      4221
 -1      2655    6    0    1
 -2      2458      2479      2478      2518      3617      4220      3591      3635      3449      3455
 -1      2656    6    0    1
 -2      2462      2481      2474      2525      2724      4211      2650      4222      3560      3561
 -1      2657    6    0    1
 -2       201      1494      1493      2536      1696      1701      1700      4139      3649      3026
 -1      2658    6    0    1
 -2      2473      2487      2464      2523      4209      4046      4040      3558      3572      4223
 -1      2659    6    0    1
 -2      2458      2559      2520      2561      4126      4009      4127      3592      4028      4029
 -1      2660    6    0    1
 -2       134       489       510      2535       713       715       711      4143      3940      3672
 -1      2661    6    0    1
 -2      2463      2485      2482      2522      2797      4224      2774      4225      3570      3568
 -1      2662    6    0    1
 -2      2482      2485      2463      2526      4224      2797      2774      3569      3571      4226
 -1      2663    6    0    1
 -2      1518        77       523      2527      1632       647      3801      3799      4166      3800
 -1      2664    6    0    1
 -2      1965      1036       271      2533      3628      1212      2199      3632      3630      4105
 -1      2665    6    0    1
 -2      1466       527        91      2517      4227       685      1672      4179      4178      4146
 -1      2666    6    0    1
 -2      1032      1524       221      2520      4228      1756      1167      4181      4183      4150
 -1      2667    6    0    1
 -2       993       292      1983      2516      1275      2262      4229      4182      4147      4180
 -1      2668    6    0    1
 -2      1984       156       516      2518      2158       777      3779      3777      4153      3778
 -1      2669    6    0    1
 -2      1007      1470       223      2519      4230      1762      1173      4185      4184      4148
 -1      2670    6    0    1
 -2       153      1958       540      2515      2153      4231       770      4155      4187      4186
 -1      2671    6    0    1
 -2      1966       139       532      2521      2107       726      3485      3487      4156      3486
 -1      2672    6    0    1
 -2      2023      1977      1013      2532      2242      3053      4232      3621      2916      2911
 -1      2673    6    0    1
 -2       274      1024      1970      2523      1225      4233      2210      4158      4190      4191
 -1      2674    6    0    1
 -2      1513       216      1011      2522      1741      1152      4234      4189      4157      4188
 -1      2675    6    0    1
 -2       525      1999       143      2524      4235      2119       738      4193      4192      4159
 -1      2676    6    0    1
 -2      2464      2489      2486      2524      4043      4236      4045      4237      3576      3574
 -1      2677    6    0    1
 -2      2483      2488      2465      2530      4238      4239      2571      3917      3932      4240
 -1      2678    6    0    1
 -2      2021      1967       134      2535      2097      2096      2092      3678      3973      4143
 -1      2679    6    0    1
 -2      2486      2489      2464      2529      4236      4043      4045      3575      3583      4241
 -1      2680    6    0    1
 -2      1964       149       486      2526      2137       756      4242      4197      4163      4194
 -1      2681    6    0    1
 -2      1058      1060      2473      2523      1366      2692      3945      4101      3104      3558
 -1      2682    6    0    1
 -2       340       347       337      2470       400       405       401      3663      4007      3650
 -1      2683    6    0    1
 -2      1967       489      2535      2542      4142      3940      3973      3974      3941      3417
 -1      2684    6    0    1
 -2       217       975      1029      1528      1157      1159      1155      1748      3907      4033
 -1      2685    6    0    1
 -2      1009      2023       284      1013      3619      2240      1255      1256      4232      1251
 -1      2686    6    0    1
 -2       219       976      1012      1529      1163      1165      1161      1750      4021      4030
 -1      2687    6    0    1
 -2       210       983      1475      2529      1134      4243      1723      4173      4196      4204
 -1      2688    6    0    1
 -2      1530       206       981      2525      1711      1122      4244      4206      4174      4195
 -1      2689    6    0    1
 -2      2465      2488      2483      2531      4239      4238      2571      4245      3921      3927
 -1      2690    6    0    1
 -2      1484       217      1029      1528      1744      1155      3509      1749      1748      4033
 -1      2691    6    0    1
 -2       976       219      1479      1529      1163      1754      4000      4021      1750      1755
 -1      2692    6    0    1
 -2      2023      1977       284      1013      2242      2238      2240      4232      3053      1251
 -1      2693    6    0    1
 -2      2465      2490      2484      2514      2568      4246      3624      3640      3498      3464
 -1      2694    6    0    1
 -2      1045      2498      1052      2510      2851      3402      1464      3113      3404      3378
 -1      2695    6    0    1
 -2      1550      2498      1542      2511      3405      2852      1804      3386      3406      3116
 -1      2696    6    0    1
 -2       568      2487       566      2528      2764      3971       873      3130      3573      4128
 -1      2697    6    0    1
 -2       564       565      2474      2521       853      2732      2677      2616      3102      3233
 -1      2698    6    0    1
 -2      1013      1009      2023      2532      1256      3619      4232      2911      3623      3621
 -1      2699    6    0    1
 -2       567       569      2489      2524       863      2768      3956      4122      3107      3576
 -1      2700    6    0    1
 -2      2484      2490      2465      2527      4246      2568      3624      3471      3476      3638
 -1      2701    6    0    1
 -2      1052      2493      1047      2509      3375      3603      1331      3377      3376      3503
 -1      2702    6    0    1
 -2      1550      1541      2493      2508      1870      2895      3381      3382      3024      3383
 -1      2703    6    0    1
 -2      1544      2480      1548      2520      2720      4069      1794      4109      4068      4010
 -1      2704    6    0    1
 -2       553       556      2480      2515       971      4049      2715      3335      4117      3567
 -1      2705    6    0    1
 -2      1053      2475      1044      2516      2706      2703      1408      4111      3564      3080
 -1      2706    6    0    1
 -2      2041      2476      2029      2516      3266      2701      2292      3088      3563      4113
 -1      2707    6    0    1
 -2       552      2476       551      2517      2712      3269       966      4114      3566      3083
 -1      2708    6    0    1
 -2      1547      2475      1538      2517      2708      2695      1799      3091      3565      4116
 -1      2709    6    0    1
 -2      1050      1051      2477      2520      1413      4201      2995      4119      4025      4120
 -1      2710    6    0    1
 -2      1046      2478      1062      2519      3900      4037      1388      3182      3899      4132
 -1      2711    6    0    1
 -2      1540      2479      1539      2519      4066      3904      1819      4134      3903      3178
 -1      2712    6    0    1
 -2       561      2479       570      2518      3902      3450       957      3180      3449      3448
 -1      2713    6    0    1
 -2      2030      2031      2478      2518      2312      3454      3901      3176      3456      3455
 -1      2714    6    0    1
 -2      2035      2477      2043      2515      2985      4073      2287      3341      3562      4121
 -1      2715    6    0    1
 -2      2042      2037      2481      2521      2327      2725      2688      3077      2622      3232
 -1      2716    6    0    1
 -2       528        80      1503      2530       652      1639      4247      4208      4175      4198
 -1      2717    6    0    1
 -2       281      2006       997      2531      2229      4248      1242      4177      4207      4202
 -1      2718    6    0    1
 -2      1557      2494      1545      2512      3913      3368      1829      3044      3370      3369
 -1      2719    6    0    1
 -2       494       511        67      1526       618       617       613      3938      3989      1600
 -1      2720    6    0    1
 -2      1552      2482      1543      2522      2775      2673      1824      4135      3568      3106
 -1      2721    6    0    1
 -2      1056      2481      1055      2525      2682      2729      1346      3121      3560      4107
 -1      2722    6    0    1
 -2      2045      2487      2046      2523      3960      2751      2347      4130      3572      3103
 -1      2723    6    0    1
 -2      2048      2044      2486      2524      2337      3966      2761      3108      4131      3574
 -1      2724    6    0    1
 -2      1515      2474      1560      2525      2648      2654      1834      4144      3561      3122
 -1      2725    6    0    1
 -2      1063      2486      1059      2529      2755      3953      1356      3125      3575      4124
 -1      2726    6    0    1
 -2      1477        73       492      2528      1620       635      4249      4205      4176      4203
 -1      2727    6    0    1
 -2      1049      2485      1064      2522      2741      2796      1336      3105      3570      4140
 -1      2728    6    0    1
 -2       562      2482       571      2526      2737      2872       843      3339      3569      4141
 -1      2729    6    0    1
 -2       515      1491        88      2560      3807      1665       680      4250      4252      4251
 -1      2730    6    0    1
 -2      2019       994       288      2561      3728      1263      2250      4253      4255      4254
 -1      2731    6    0    1
 -2      2049      2485      2034      2526      2892      2746      2317      4137      3571      3342
 -1      2732    6    0    1
 -2      2010       269      1041      2534      2195      1210      3641      3643      4170      3644
 -1      2733    6    0    1
 -2      1545      2499      1546      2513      3388      2980      1956      3373      3389      3056
 -1      2734    6    0    1
 -2       541       494       576      2495       882       615       884      3304      3935      3793
 -1      2735    6    0    1
 -2       415       411       410      2492       476       470       477      2974      3423      2975
 -1      2736    6    0    1
 -2       514      1468        95       497      3942      1686       701       702      3988       697
 -1      2737    6    0    1
 -2      1042      1022      1047      2544      1308      1327      1398      3262      4083      3264
 -1      2738    6    0    1
 -2      1533      2490      1549      2527      2776      2678      1905      3477      3476      3126
 -1      2739    6    0    1
 -2      2036      2488      2025      2531      3922      4056      2392      3187      3921      4160
 -1      2740    6    0    1
 -2      1535      2489      1551      2529      3975      2876      1843      4165      3583      3147
 -1      2741    6    0    1
 -2      1976      2028      2032      2544      2375      2379      2378      4085      3329      3332
 -1      2742    6    0    1
 -2      1039      2483      1054      2531      2888      3928      1426      4167      3927      3195
 -1      2743    6    0    1
 -2       563       546      2488      2530       914      4061      3933      3198      4168      3932
 -1      2744    6    0    1
 -2      2005       162       481      1961      2176       797      3804      2181      2180      3658
 -1      2745    6    0    1
 -2      2053      2002      2484      2514      2442      3466      2784      3068      3465      3464
 -1      2746    6    0    1
 -2      1067      2499      1005      2534      3048      3424      1447      3073      3428      3426
 -1      2747    6    0    1
 -2      1553      1499      2501      2507      1813      3437      3010      3039      3438      3439
 -1      2748    6    0    1
 -2      1005      2494      1043      2533      3425      3929      1339      3442      3441      3127
 -1      2749    6    0    1
 -2       545      2026       145      2562      3765      2125       744      4256      4258      4257
 -1      2750    6    0    1
 -2      1065      2490      1017      2514      2791      2884      1459      3076      3498      3497
 -1      2751    6    0    1
 -2       572      2484       524      2527      2781      3472       963      3120      3471      3470
 -1      2752    6    0    1
 -2      1504      1556      2483      2530      1945      3918      2734      4172      3185      3917
 -1      2753    6    0    1
 -2      1511      2473      1559      2528      3985      2641      1854      4171      3577      3129
 -1      2754    6    0    1
 -2      1526      1495      1562      2495      1930      1931      1601      3939      3316      3792
 -1      2755    6    0    1
 -2      1040      2544      2504      2558      4259      3460      3596      3494      4260      3998
 -1      2756    6    0    1
 -2      2478      2559      2458      2561      4036      4126      3591      3545      4028      3592
 -1      2757    6    0    1
 -2      1006       988      1040      2504      1198      1379      1378      3588      3292      3596
 -1      2758    6    0    1
 -2      1554      1479      2502      2549      1863      4002      3930      3052      4003      3931
 -1      2759    6    0    1
 -2      1536      1468      1563      2496      1807      1691      1809      3256      3943      3702
 -1      2760    6    0    1
 -2       201       987      1494      2536      1107      3669      1696      4139      3670      3649
 -1      2761    6    0    1
 -2      1061      1057      2501      2532      1316      2998      3665      3605      3135      3639
 -1      2762    6    0    1
 -2       134       510      2021      2535       711      3677      2092      4143      3672      3678
 -1      2763    6    0    1
 -2       286      1019      1972      2541      1261      3301      2246      4261      3016      3014
 -1      2764    6    0    1
 -2       581      1568      1563      2469      4262      1692      4263      4264      4265      3699
 -1      2765    6    0    1
 -2       409      1489       418      2469      3208      4266       456      3210      3211      4267
 -1      2766    6    0    1
 -2      2458      2547      2480      2560      3590      4047      4216      3618      3548      4050
 -1      2767    6    0    1
 -2      1565      1478      1073      2472      1695      4268      4269      4270      3282      4271
 -1      2768    6    0    1
 -2      2454      2499      2468      2513      2979      3604      4272      2803      3389      3601
 -1      2769    6    0    1
 -2      2456      2498      2467      2511      2601      3633      4273      3109      3406      3613
 -1      2770    6    0    1
 -2      2467      2498      2456      2510      3633      2601      4273      3615      3404      3112
 -1      2771    6    0    1
 -2      1491      1520        88      2560      1667      1663      1665      4252      4089      4251
 -1      2772    6    0    1
 -2       515        88       479      2560       680       676       681      4250      4251      4088
 -1      2773    6    0    1
 -2       288      1996      2019      2561      2252      2254      2250      4254      4087      4253
 -1      2774    6    0    1
 -2      1027       288       994      2561      1267      1263      1268      4086      4254      4255
 -1      2775    6    0    1
 -2      2453      2493      2467      2509      2613      3611      4274      3504      3376      3614
 -1      2776    6    0    1
 -2      2467      2493      2453      2508      3611      2613      4274      3612      3383      2813
 -1      2777    6    0    1
 -2      2468      2494      2462      2512      3599      4006      4275      3600      3370      2788
 -1      2778    6    0    1
 -2      2052       145      2026      2562      2129      2125      2130      4104      4257      4258
 -1      2779    6    0    1
 -2       145       573       545      2562       746       748       744      4257      4103      4256
 -1      2780    6    0    1
 -2      1961      2027      2056      2505      2301      2302      2184      3661      3667      3352
 -1      2781    6    0    1
 -2       511       494       542      2495       618       881       880      2924      3935      2926
 -1      2782    6    0    1
 -2      2488      2554      2465      2562      4055      3064      4239      4058      3582      3625
 -1      2783    6    0    1
 -2       515      2479      1491      2560      3806      3805      3807      4250      3547      4252
 -1      2784    6    0    1
 -2       994      2019      2477      2561      3728      3727      3729      4255      4253      4075
 -1      2785    6    0    1
 -2      2468      2499      2454      2534      3604      2979      4272      3616      3428      3008
 -1      2786    6    0    1
 -2      1074       988      1567      2492      1199      4276      4277      4278      3290      4279
 -1      2787    6    0    1
 -2       514       497       549      2496       702       897       896      3937      2940      2941
 -1      2788    6    0    1
 -2       503       336        10       334      3295       360       597      3152       365       364
 -1      2789    6    0    1
 -2      2465      2555      2488      2562      3133      4059      4239      3625      3580      4058
 -1      2790    6    0    1
 -2      2462      2494      2468      2533      4006      3599      4275      2919      3441      3634
 -1      2791    6    0    1
 -2       286       992      1019      2541      1257      1262      1261      4261      3656      3016
 -1      2792    6    0    1
 -2      1040       974      2544      2558      1310      4280      4259      3494      4281      4260
 -1      2793    6    0    1
 -2        59       407      1489       409       458      3207      1590       454       459      3208
 -1      2794    6    0    1
 -2      2460      2501      2466      2507      2999      3646      4282      2842      3439      3647
 -1      2795    6    0    1
 -2      1061      2502      1048      2541      3607      3997      1403      3608      3609      3343
 -1      2796    6    0    1
 -2       418       581       575      2469      4283       605      4284      4267      4264      3364
 -1      2797    6    0    1
 -2      1527        31       340       335      1586       382      3397      3584       384       386
 -1      2798    6    0    1
 -2      2466      2502      2459      2506      3673      4018      4285      3645      3502      2860
 -1      2799    6    0    1
 -2      2026       545      2484      2562      3765      3766      3767      4258      4256      3579
 -1      2800    6    0    1
 -2       544       503        10       334       601       597       599      3153      3152       364
 -1      2801    6    0    1
 -2      2458      2559      2479      2560      4126      4067      3617      3618      4013      3547
 -1      2802    6    0    1
 -2      1468      1537      1512      2496      1806      1805      1688      3943      2933      2934
 -1      2803    6    0    1
 -2      1561        59       407      1489      1592       458      3218      1594      1590      3207
 -1      2804    6    0    1
 -2      2466      2501      2460      2532      3646      2999      4282      3774      3639      2913
 -1      2805    6    0    1
 -2      1526      1474      1525      2495      1604      1837      1838      3939      2937      2938
 -1      2806    6    0    1
 -2      2495      2503      2451      2535      4286      3359      3305      3433      3666      2976
 -1      2807    6    0    1
 -2      2056      2061       582      2471      2185      4287      4288      3350      4290      4289
 -1      2808    6    0    1
 -2      2451      2503      2495      2536      3359      4286      3305      2970      3662      3408
 -1      2809    6    0    1
 -2      1028      1043      2494      2550      1341      3929      3993      4023      3128      3914
 -1      2810    6    0    1
 -2      1557      1531      2494      2550      1827      3995      3913      3045      4024      3914
 -1      2811    6    0    1
 -2       579      2059      2055      2491      4291      2091      4292      4293      4294      3323
 -1      2812    6    0    1
 -2      1488        31       340      1527      1582       382      3398      1587      1586      3397
 -1      2813    6    0    1
 -2      2459      2502      2466      2541      4018      3673      4285      2989      3609      3775
 -1      2814    6    0    1
 -2      1489      1568       418      2469      1591      4295      4266      3211      4265      4267
 -1      2815    6    0    1
 -2       541       542      2495      2535       883      2926      3304      2977      3416      3433
 -1      2816    6    0    1
 -2        24      1000      1037       333      1089      1094      1093       377      3346      3345
 -1      2817    6    0    1
 -2      2467      2508      2453      2539      3612      2813      4274      3162      3489      3192
 -1      2818    6    0    1
 -2      2453      2509      2467      2539      3504      3614      4274      3192      3983      3162
 -1      2819    6    0    1
 -2      2466      2506      2459      2537      3645      2860      4285      3167      3496      3242
 -1      2820    6    0    1
 -2      2460      2507      2466      2538      2842      3647      4282      3245      3495      3170
 -1      2821    6    0    1
 -2      2467      2510      2456      2540      3615      3112      4273      3164      3491      3249
 -1      2822    6    0    1
 -2      2456      2511      2467      2540      3109      3613      4273      3249      3490      3164
 -1      2823    6    0    1
 -2      2480      2520      2458      2560      4068      4127      4216      4050      4012      3618
 -1      2824    6    0    1
 -2      2458      2519      2479      2559      4221      3903      3617      4126      4133      4067
 -1      2825    6    0    1
 -2      2478      2519      2458      2559      3899      4221      3591      4036      4133      4126
 -1      2826    6    0    1
 -2      1022      1976      2509      2544      4095      4084      4082      4083      4085      3505
 -1      2827    6    0    1
 -2      2487      2528      2464      2551      3573      4210      4046      3970      4129      4042
 -1      2828    6    0    1
 -2      2054        45      1982       406      2086      2082      2087      3317       443      3318
 -1      2829    6    0    1
 -2      1495      2495      1525      2536      3316      2938      1929      2969      3408      3142
 -1      2830    6    0    1
 -2      2464      2528      2473      2551      4210      3577      4040      4042      4129      3987
 -1      2831    6    0    1
 -2      2457      2516      2475      2546      4213      3564      2696      3097      4112      3392
 -1      2832    6    0    1
 -2      2476      2516      2457      2546      3563      4213      2702      3394      4112      3097
 -1      2833    6    0    1
 -2      2458      2515      2480      2547      4218      3567      4216      3590      4118      4047
 -1      2834    6    0    1
 -2      2477      2515      2458      2547      3562      4218      4217      4072      4118      3590
 -1      2835    6    0    1
 -2      2457      2517      2476      2548      4214      3566      2702      3094      4115      3395
 -1      2836    6    0    1
 -2      2475      2517      2457      2548      3565      4214      2696      3393      4115      3094
 -1      2837    6    0    1
 -2      2477      2520      2459      2549      4120      4219      2986      3391      4110      3037
 -1      2838    6    0    1
 -2      2459      2520      2480      2549      4219      4068      2716      3037      4110      3396
 -1      2839    6    0    1
 -2      2473      2523      2464      2552      3558      4223      4040      3946      4102      4041
 -1      2840    6    0    1
 -2      2481      2525      2462      2550      3560      4222      2724      3410      4108      3033
 -1      2841    6    0    1
 -2      2462      2525      2474      2550      4222      3561      2650      3033      4108      3390
 -1      2842    6    0    1
 -2      2466      2537      2459      2541      3167      3242      4285      3775      3506      2989
 -1      2843    6    0    1
 -2      2483      2530      2465      2555      3917      4240      2571      3431      4169      3133
 -1      2844    6    0    1
 -2      2465      2530      2488      2555      4240      3932      4239      3133      4169      4059
 -1      2845    6    0    1
 -2      2454      2513      2468      2542      2803      3601      4272      3276      3559      3212
 -1      2846    6    0    1
 -2      2477      2547      2458      2561      4072      3590      4217      4075      3544      3592
 -1      2847    6    0    1
 -2      2486      2529      2464      2545      3575      4241      4045      3952      4125      4039
 -1      2848    6    0    1
 -2      2468      2512      2462      2543      3600      2788      4275      3214      3540      2620
 -1      2849    6    0    1
 -2      1971      2058      1072      2497      2188      4296      4297      3535      4299      4298
 -1      2850    6    0    1
 -2      2463      2522      2482      2557      4225      3568      2774      3137      4136      3407
 -1      2851    6    0    1
 -2      2482      2526      2463      2556      3569      4226      2774      3418      4138      3144
 -1      2852    6    0    1
 -2      2485      2522      2463      2557      3570      4225      2797      3429      4136      3137
 -1      2853    6    0    1
 -2      2463      2526      2485      2556      4226      3571      2797      3144      4138      3430
 -1      2854    6    0    1
 -2      2489      2524      2464      2553      3576      4237      4043      3957      4123      4044
 -1      2855    6    0    1
 -2      2464      2529      2489      2545      4241      3583      4043      4039      4125      3976
 -1      2856    6    0    1
 -2      2464      2523      2487      2552      4223      3572      4046      4041      4102      3961
 -1      2857    6    0    1
 -2      1042      2504      1040      2544      3459      3596      1309      3262      3460      4259
 -1      2858    6    0    1
 -2      2464      2524      2486      2553      4237      3574      4045      4044      4123      3968
 -1      2859    6    0    1
 -2      2465      2531      2483      2554      4245      3927      2571      3064      4161      3432
 -1      2860    6    0    1
 -2      2466      2532      2460      2538      3774      2913      4282      3170      3528      3245
 -1      2861    6    0    1
 -2      2488      2531      2465      2554      3921      4245      4239      4055      4161      3064
 -1      2862    6    0    1
 -2       989      1062      2478      2561      1384      4037      3812      4077      4038      3545
 -1      2863    6    0    1
 -2      2031      1963      2478      2561      2309      3811      3454      3543      4076      3545
 -1      2864    6    0    1
 -2       556       539      2480      2560       807      3731      4049      4051      4079      4050
 -1      2865    6    0    1
 -2      1465      1548      2480      2560      1792      4069      3733      4080      4011      4050
 -1      2866    6    0    1
 -2       286      1972      2024      2541      2246      2248      2244      4261      3014      3657
 -1      2867    6    0    1
 -2      2060      1974      1075      2500      2282      4300      4301      4302      4304      4303
 -1      2868    6    0    1
 -2      1529      1554      1479      2502      1864      1863      1755      4022      3930      4002
 -1      2869    6    0    1
 -2      2454      2503      2495      2535      3005      4286      2925      3415      3666      3433
 -1      2870    6    0    1
 -2      2468      2534      2454      2542      3616      3008      4272      3212      3529      3276
 -1      2871    6    0    1
 -2      2484      2490      2461      2514      4246      2659      2780      3464      3498      2844
 -1      2872    6    0    1
 -2      2495      2503      2454      2536      4286      3005      2925      3408      3662      2982
 -1      2873    6    0    1
 -2      2462      2533      2468      2543      2919      3634      4275      2620      3549      3214
 -1      2874    6    0    1
 -2      2461      2490      2484      2527      2659      4246      2780      2848      3476      3471
 -1      2875    6    0    1
 -2       544       334       343      2491      3153       366      4305      3155      3156      4306
 -1      2876    6    0    1
 -2      2455      2487      2473      2523      2752      4209      2642      2815      3572      3558
 -1      2877    6    0    1
 -2      2473      2487      2455      2528      4209      2752      2642      3577      3573      2667
 -1      2878    6    0    1
 -2      2455      2481      2474      2521      2684      4211      2655      2808      3232      3233
 -1      2879    6    0    1
 -2      1989      2503      2020      2535      3366      3017      2426      3236      3666      3434
 -1      2880    6    0    1
 -2      2474      2481      2455      2525      4211      2684      2655      3561      3560      2645
 -1      2881    6    0    1
 -2      2475      2476      2456      2516      4212      3267      2599      3564      3563      3079
 -1      2882    6    0    1
 -2      2456      2476      2475      2517      3267      4212      2599      3085      3566      3565
 -1      2883    6    0    1
 -2      2459      2480      2477      2515      2716      4215      2986      3336      3567      3562
 -1      2884    6    0    1
 -2      2478      2479      2457      2518      4220      4017      4016      3455      3449      2826
 -1      2885    6    0    1
 -2      2457      2479      2478      2519      4017      4220      4016      2823      3903      3899
 -1      2886    6    0    1
 -2      2458      2480      2477      2520      4216      4215      4217      4127      4068      4120
 -1      2887    6    0    1
 -2       407       417      1561      2492       460      4307      3218      3219      4308      3221
 -1      2888    6    0    1
 -2      1034      1035      2503      2536      1375      3004      3358      3206      3197      3662
 -1      2889    6    0    1
 -2      2486      2489      2461      2524      4236      2770      2757      3574      3576      2834
 -1      2890    6    0    1
 -2      2482      2485      2460      2522      4224      2743      2674      3568      3570      3002
 -1      2891    6    0    1
 -2      2460      2485      2482      2526      2743      4224      2674      3338      3571      3569
 -1      2892    6    0    1
 -2       557       558       519      2537       960       941       824      3241      3689      3166
 -1      2893    6    0    1
 -2       555       507       558      2538       943       940       823      3246      2959      3980
 -1      2894    6    0    1
 -2      1562      1566       580      2470      1598      4309      4310      3789      4312      4311
 -1      2895    6    0    1
 -2      2461      2489      2486      2529      2770      4236      2757      2662      3583      3575
 -1      2896    6    0    1
 -2      1048      2502       976      2549      3997      4001      1318      3344      3931      4004
 -1      2897    6    0    1
 -2       560       554       535      2540       969       939       836      3691      3250      2954
 -1      2898    6    0    1
 -2      2017      2033      2047      2540      2434      2297      2362      2956      3248      3693
 -1      2899    6    0    1
 -2      2050      1993      1962      2538      2305      2304      2306      3253      3676      2961
 -1      2900    6    0    1
 -2       500      2488       546      2562      3878      4061       913      4098      4058      4062
 -1      2901    6    0    1
 -2      2025      2488      1979      2562      4056      3879      2393      4057      4058      4099
 -1      2902    6    0    1
 -2       485       559       560      2539       834       838       837      2965      3240      3981
 -1      2903    6    0    1
 -2      2032      1973      2047      2539      2360      2361      2363      3331      2963      3982
 -1      2904    6    0    1
 -2      1992      1993      2051      2537      2303      2431      2430      3674      3675      3254
 -1      2905    6    0    1
 -2      2463      2488      2483      2530      4019      4238      4020      2857      3932      3917
 -1      2906    6    0    1
 -2      2483      2488      2463      2531      4238      4019      4020      3927      3921      2887
 -1      2907    6    0    1
 -2      1501       972      2520      2559      4149      4151      4152      4313      4314      4009
 -1      2908    6    0    1
 -2       418      1568       581      2469      4295      4262      4283      4267      4265      4264
 -1      2909    6    0    1
 -2      1023       991      1047      2493      1192      1397      1396      3681      2607      3603
 -1      2910    6    0    1
 -2      1505      1541      1483      2493      1885      1884      1782      3685      2895      2608
 -1      2911    6    0    1
 -2       413       418       575      2469       435      4284      3362      3365      4267      3364
 -1      2912    6    0    1
 -2      1000        24       339       333      1089       375      3626      3346       377       379
 -1      2913    6    0    1
 -2      1001        52       414       411      1099       451      3594      3420       447       452
 -1      2914    6    0    1
 -2        52      1001      1068       411      1099      1101      1097       447      3420      3419
 -1      2915    6    0    1
 -2      1557      1531      1472      2494      1827      1710      1828      3913      3995      3711
 -1      2916    6    0    1
 -2      1028      1043       980      2494      1341      1340      1120      3993      3929      3709
 -1      2917    6    0    1
 -2        45       412      1982       406       441      3597      2082       443       445      3318
 -1      2918    6    0    1
 -2      1057      1029       975      2501      1314      1159      1315      2998      3054      3909
 -1      2919    6    0    1
 -2      2024       992       286      2541      3654      1257      2244      3657      3656      4261
 -1      2920    6    0    1
 -2      1042      1040       974      2544      1309      1310      1307      3262      4259      4280
 -1      2921    6    0    1
 -2       579       544       343      2491       602      4305      4315      4293      3155      4306
 -1      2922    6    0    1
 -2       345       336       503      2470       362      3295      4316      4317      3296      3297
 -1      2923    6    0    1
 -2      2038      1986      2039      2543      2419      2420      2322      3277      3060      3999
 -1      2924    6    0    1
 -2      1068      1074       417      2492      1098      4318      4319      3421      4278      4308
 -1      2925    6    0    1
 -2      1567      1561       417      2492      1595      4307      4320      4279      3221      4308
 -1      2926    6    0    1
 -2       145      2052       573      2562      2129      4164       746      4257      4104      4103
 -1      2927    6    0    1
 -2      2039      2011      2040      2542      2421      2328      2449      3695      3118      3275
 -1      2928    6    0    1
 -2      1493      1546      1516      2499      1928      1927      1704      3025      2980      3707
 -1      2929    6    0    1
 -2      1507      1542      1467      2498      1803      1802      1776      2596      2852      3686
 -1      2930    6    0    1
 -2       973      1026      1045      2498      1186      1305      1304      2598      3687      2851
 -1      2931    6    0    1
 -2      1003      1004      1067      2499      1114      1446      1445      3159      3706      3048
 -1      2932    6    0    1
 -2      1565       335      1527      2472      4321      3584      1588      4270      3585      3401
 -1      2933    6    0    1
 -2       343      1981      2059      2491      4322      2077      4323      4306      3507      4294
 -1      2934    6    0    1
 -2       575       504        38       413       608       607       603      3362      3361       434
 -1      2935    6    0    1
 -2      1520       479        88      2560      4200       676      1663      4089      4088      4251
 -1      2936    6    0    1
 -2       288      1027      1996      2561      1267      4199      2252      4254      4086      4087
 -1      2937    6    0    1
 -2       574       548       513      2542       858       956       954      3279      3117      3697
 -1      2938    6    0    1
 -2       543       550       513      2543       903       847       955      3201      3280      3991
 -1      2939    6    0    1
 -2       408        38       504       413       436       607      3636       438       434      3361
 -1      2940    6    0    1
 -2      1048      1012       976      2502      1317      1165      1318      3997      4031      4001
 -1      2941    6    0    1
 -2       582       408       504      2471      4324      3636       609      4289      3637      3542
 -1      2942    6    0    1
 -2       335      1565       344      2472      4321      4325       387      3585      4270      4326
 -1      2943    6    0    1
 -2       345       503       580      2470      4316       598      4327      4317      3297      4311
 -1      2944    6    0    1
 -2      1566      1488       345      2470      1584      4328      4329      4312      3664      4317
 -1      2945    6    0    1
 -2      2043      2477      2019      2561      4073      3727      2437      4074      4075      4253
 -1      2946    6    0    1
 -2       994      2477      1051      2561      3729      4201      1412      4255      4075      4027
 -1      2947    6    0    1
 -2      1540      1491      2479      2560      1920      3805      4066      4065      4252      3547
 -1      2948    6    0    1
 -2       515       570      2479      2560       804      3450      3806      4250      3546      3547
 -1      2949    6    0    1
 -2      2458      2520      2477      2561      4127      4120      4217      3592      4029      4075
 -1      2950    6    0    1
 -2       411      1068       417      2492      3419      4319       449      3423      3421      4308
 -1      2951    6    0    1
 -2        90       527      1466      2548       686      4227      1671      4330      4332      4331
 -1      2952    6    0    1
 -2      1983       291       993      2546      2261      1276      4229      4333      4335      4334
 -1      2953    6    0    1
 -2      1958       154       540      2547      2152       771      4231      4336      4338      4337
 -1      2954    6    0    1
 -2       220      1524      1032      2549      1757      4228      1166      4339      4341      4340
 -1      2955    6    0    1
 -2      1970      1024       275      2552      4233      1224      2211      4342      4344      4343
 -1      2956    6    0    1
 -2       215      1513      1011      2557      1742      4234      1151      4345      4347      4346
 -1      2957    6    0    1
 -2       142      1999       525      2553      2120      4235       737      4348      4350      4349
 -1      2958    6    0    1
 -2      1964       486       148      2556      4242       755      2138      4351      4353      4352
 -1      2959    6    0    1
 -2      1484      1553      1528      2501      1890      1889      1749      3065      3010      3908
 -1      2960    6    0    1
 -2      1477       492        74      2551      4249       634      1621      4354      4356      4355
 -1      2961    6    0    1
 -2       989      1027      1062      2561      1271      1385      1384      4077      4086      4038
 -1      2962    6    0    1
 -2      2031      1996      1963      2561      2308      2257      2309      3543      4087      4076
 -1      2963    6    0    1
 -2       556       479       539      2560       806       678       807      4051      4088      4079
 -1      2964    6    0    1
 -2      1465      1520      1548      2560      1664      1793      1792      4080      4089      4011
 -1      2965    6    0    1
 -2      1499      1554      1529      2502      1934      1864      1936      3500      3930      4022
 -1      2966    6    0    1
 -2      1035       982      1002      2503      1347      1208      1348      3004      3069      3823
 -1      2967    6    0    1
 -2      2026      2484      2002      2562      3767      3466      2444      4258      3579      3581
 -1      2968    6    0    1
 -2       524      2484       545      2562      3472      3766       964      3578      3579      4256
 -1      2969    6    0    1
 -2       582       416       408      2471      4357       439      4324      4289      4358      3637
 -1      2970    6    0    1
 -2      1475       983       209      2545      4243      1133      1724      4359      4361      4360
 -1      2971    6    0    1
 -2      1503        79       528      2555      1638       653      4247      4362      4364      4363
 -1      2972    6    0    1
 -2      1987      2020      1988      2503      2423      2422      2194      3172      3017      3788
 -1      2973    6    0    1
 -2       529       161      2005      2539       794      2177      3651      3272      4365      3653
 -1      2974    6    0    1
 -2       981       205      1530      2550      1121      1712      4244      4366      4368      4367
 -1      2975    6    0    1
 -2       338      1981       343      2491      3353      4322       369      3508      3507      4306
 -1      2976    6    0    1
 -2      1563       495       581      2469      3700       706      4263      3699      3698      4264
 -1      2977    6    0    1
 -2       152      1991       483      2537      2150      4154       767      4369      3920      3912
 -1      2978    6    0    1
 -2      1060       985      1058      2473      1363      1364      1366      2692      3763      3945
 -1      2979    6    0    1
 -2      1994       159       506      2540      2167       786      3593      3412      4370      3414
 -1      2980    6    0    1
 -2      2016       150       538      2538      2140       759      4162      3924      4371      3916
 -1      2981    6    0    1
 -2       498       137      2009      2543       722      2105      2932      2626      4372      2628
 -1      2982    6    0    1
 -2       346      1037      1072      2497      4373      1095      4374      4375      3347      4298
 -1      2983    6    0    1
 -2       419      2054      2060      2500      4376      2088      4377      4378      3321      4302
 -1      2984    6    0    1
 -2      2058      2022       341      2497      2081      3446      4379      4299      3355      3447
 -1      2985    6    0    1
 -2       280       997      2006      2554      1243      4248      2228      4380      4382      4381
 -1      2986    6    0    1
 -2       564       565       488      2474       853       850       851      2677      2732      3752
 -1      2987    6    0    1
 -2       490       567       569      2489       861       863       860      3759      3956      2768
 -1      2988    6    0    1
 -2       573       500       546      2562       751       913       915      4103      4098      4062
 -1      2989    6    0    1
 -2      2052      2025      1979      2562      2394      2393      2133      4104      4057      4099
 -1      2990    6    0    1
 -2      1073      1478      1069      2472      4268      3283      1105      4271      3282      3281
 -1      2991    6    0    1
 -2      1473      1560      1515      2474      1830      1834      1833      3754      2654      2648
 -1      2992    6    0    1
 -2      1985      2042      2037      2481      2414      2327      2417      3713      2688      2725
 -1      2993    6    0    1
 -2      1025      1055      1056      2481      1414      1346      1432      3715      2729      2682
 -1      2994    6    0    1
 -2      2019      2043      2035      2477      2437      2287      2355      3727      4073      2985
 -1      2995    6    0    1
 -2       994      1050      1051      2477      1409      1413      1412      3729      2995      4201
 -1      2996    6    0    1
 -2      1490      1538      1547      2475      1915      1799      1914      3724      2695      2708
 -1      2997    6    0    1
 -2      1020      1044      1053      2475      1302      1408      1325      3721      2703      2706
 -1      2998    6    0    1
 -2       526       551       552      2476       936       966       832      3717      3269      2712
 -1      2999    6    0    1
 -2      1959      2029      2041      2476      2290      2292      2289      3719      2701      3266
 -1      3000    6    0    1
 -2      1062      1046       989      2478      1388      1387      1384      4037      3900      3812
 -1      3001    6    0    1
 -2      1539      1540      1491      2479      1819      1920      1917      3904      4066      3805
 -1      3002    6    0    1
 -2       553       556       539      2480       971       807       946      2715      4049      3731
 -1      3003    6    0    1
 -2       570       561       515      2479       957       949       804      3450      3902      3806
 -1      3004    6    0    1
 -2      1963      2030      2031      2478      2310      2312      2309      3811      3901      3454
 -1      3005    6    0    1
 -2      1465      1548      1544      2480      1792      1794      1791      3733      4069      2720
 -1      3006    6    0    1
 -2      1074      1567       417      2492      4277      4320      4318      4278      4279      4308
 -1      3007    6    0    1
 -2      1543      1552      1471      2482      1824      1821      1822      2673      2775      3750
 -1      3008    6    0    1
 -2      1063      1018      1059      2486      1420      1434      1356      2755      3738      3953
 -1      3009    6    0    1
 -2      2048      2044      1968      2486      2337      2336      2333      2761      3966      3737
 -1      3010    6    0    1
 -2      2004      2046      2045      2487      2445      2347      2398      3748      2751      3960
 -1      3011    6    0    1
 -2       566       568       531      2487       873       917       923      3971      2764      3746
 -1      3012    6    0    1
 -2       518       571       562      2482       891       843       959      3744      2872      2737
 -1      3013    6    0    1
 -2       339      1073      1000      2472      4383      1091      3626      3627      4271      3493
 -1      3014    6    0    1
 -2      1054      1039      1021      2483      1426      1361      1391      3928      2888      3783
 -1      3015    6    0    1
 -2      2008      2034      2049      2485      2380      2317      2373      3742      2746      2892
 -1      3016    6    0    1
 -2       979      1064      1049      2485      1332      1336      1335      3740      2796      2741
 -1      3017    6    0    1
 -2      1478      1073       199      1565      4268      1082      1694      1695      4269      1575
 -1      3018    6    0    1
 -2      1565      1073       344      2472      4269      4384      4325      4270      4271      4326
 -1      3019    6    0    1
 -2       135       489      1967      2542       714      4142      2095      4385      3941      3974
 -1      3020    6    0    1
 -2       492      2528       566      2551      4203      4128       872      4356      4129      3969
 -1      3021    6    0    1
 -2      2059       579       343      2491      4291      4315      4323      4294      4293      4306
 -1      3022    6    0    1
 -2      2061      1982       412      2471      2084      3597      4386      4290      3445      3598
 -1      3023    6    0    1
 -2       981      2525      1055      2550      4195      4107      1345      4366      4108      3074
 -1      3024    6    0    1
 -2      1544      2520      1524      2549      4109      4183      1861      3036      4110      4341
 -1      3025    6    0    1
 -2       540       556      2515      2547       934      4117      4186      4337      4048      4118
 -1      3026    6    0    1
 -2      1053      2516       993      2546      4111      4182      1406      3098      4112      4334
 -1      3027    6    0    1
 -2       552      2517       527      2548      4114      4178       950      3100      4115      4332
 -1      3028    6    0    1
 -2      1983      2516      2029      2546      4180      4113      2409      4333      4112      3095
 -1      3029    6    0    1
 -2      1538      1466      2517      2548      1798      4179      4116      3092      4331      4115
 -1      3030    6    0    1
 -2      1050      1032      2520      2549      1320      4181      4119      3258      4340      4110
 -1      3031    6    0    1
 -2      1958      2515      2043      2547      4187      4121      2286      4336      4118      4071
 -1      3032    6    0    1
 -2      1065      1016      1017      2490      1458      1357      1459      2791      3773      2884
 -1      3033    6    0    1
 -2      1974      1075       298      2060      4300      1085      2280      2282      4301      2074
 -1      3034    6    0    1
 -2       983      2529      1059      2545      4196      4124      1355      4361      4125      3951
 -1      3035    6    0    1
 -2      1506      1551      1535      2489      1892      1843      1949      3769      2876      3975
 -1      3036    6    0    1
 -2      1503      2530      1504      2555      4198      4172      1846      4362      4169      3131
 -1      3037    6    0    1
 -2      2045      2523      1970      2552      4130      4191      2345      3962      4102      4342
 -1      3038    6    0    1
 -2      1058      1024      2523      2552      1437      4190      4101      3947      4344      4102
 -1      3039    6    0    1
 -2      2044      2524      1999      2553      4131      4192      2395      3967      4123      4350
 -1      3040    6    0    1
 -2       567       525      2524      2553       922      4193      4122      3958      4349      4123
 -1      3041    6    0    1
 -2      1552      2522      1513      2557      4135      4189      1877      3136      4136      4347
 -1      3042    6    0    1
 -2      1511      2528      1477      2551      4171      4205      1852      3986      4129      4354
 -1      3043    6    0    1
 -2      2006      2531      2025      2554      4207      4160      2342      4381      4161      4054
 -1      3044    6    0    1
 -2      1481      1567       988      2492      1789      4276      3291      3202      4279      3290
 -1      3045    6    0    1
 -2      1064      1011      2522      2557      1390      4188      4140      3148      4346      4136
 -1      3046    6    0    1
 -2       486      2526       571      2556      4194      4141       840      4353      4138      3150
 -1      3047    6    0    1
 -2      2049      2526      1964      2556      4137      4197      2313      3143      4138      4351
 -1      3048    6    0    1
 -2      2025      2036      1979      2488      2392      2391      2393      4056      3922      3879
 -1      3049    6    0    1
 -2       563       546       500      2488       914       913       911      3933      4061      3878
 -1      3050    6    0    1
 -2       546      2530       528      2555      4168      4208       868      4060      4169      4363
 -1      3051    6    0    1
 -2       492       568       566      2528       869       873       872      4203      3130      4128
 -1      3052    6    0    1
 -2      1515      2525      1530      2550      4144      4206      1954      3032      4108      4367
 -1      3053    6    0    1
 -2       582      2056       164      2061      4288      2182       592      4287      2185      2071
 -1      3054    6    0    1
 -2       580        65      1566      1562       589      1572      4309      4310      1596      1598
 -1      3055    6    0    1
 -2       545       524       572      2484       964       963       909      3766      3472      2781
 -1      3056    6    0    1
 -2      2026      2053      2002      2484      2387      2442      2444      3767      2784      3466
 -1      3057    6    0    1
 -2      2042      1966      2037      2521      2324      2325      2327      3077      3487      2622
 -1      3058    6    0    1
 -2       564       532       565      2521       902       918       853      2616      3486      3102
 -1      3059    6    0    1
 -2      1544      1548      1524      2520      1794      1941      1861      4109      4010      4183
 -1      3060    6    0    1
 -2       553       540       556      2515       827       934       971      3335      4186      4117
 -1      3061    6    0    1
 -2      1053      1044       993      2516      1408      1405      1406      4111      3080      4182
 -1      3062    6    0    1
 -2       527       552       551      2517       950       966       810      4178      4114      3083
 -1      3063    6    0    1
 -2      2041      2029      1983      2516      2292      2409      2406      3088      4113      4180
 -1      3064    6    0    1
 -2      2030      1984      2031      2518      2411      2412      2312      3176      3777      3456
 -1      3065    6    0    1
 -2      1050      1032      1051      2520      1320      1299      1413      4119      4181      4025
 -1      3066    6    0    1
 -2      1007      1046      1062      2519      1322      1388      1298      4185      3182      4132
 -1      3067    6    0    1
 -2      1470      1540      1539      2519      1815      1819      1818      4184      4134      3178
 -1      3068    6    0    1
 -2      1466      1547      1538      2517      1795      1799      1798      4179      3091      4116
 -1      3069    6    0    1
 -2       561       570       516      2518       957       933       829      3180      3448      3778
 -1      3070    6    0    1
 -2      2035      2043      1958      2515      2287      2286      2283      3341      4121      4187
 -1      3071    6    0    1
 -2      1513      1552      1543      2522      1877      1824      1888      4189      4135      3106
 -1      3072    6    0    1
 -2      1058      1024      1060      2523      1437      1429      1366      4101      4190      3104
 -1      3073    6    0    1
 -2      2045      2046      1970      2523      2347      2344      2345      4130      3103      4191
 -1      3074    6    0    1
 -2       567       525       569      2524       922       906       863      4122      4193      3107
 -1      3075    6    0    1
 -2      2048      1999      2044      2524      2386      2395      2337      3108      4192      4131
 -1      3076    6    0    1
 -2      1533      1549      1518      2527      1905      1895      1849      3477      3126      3799
 -1      3077    6    0    1
 -2      1056      1055       981      2525      1346      1345      1342      3121      4107      4195
 -1      3078    6    0    1
 -2       346      2058       341      2497      4387      4379       373      4375      4299      3447
 -1      3079    6    0    1
 -2      1534      1504      1556      2483      1947      1945      1880      3786      2734      3918
 -1      3080    6    0    1
 -2       983      1063      1059      2529      1352      1356      1355      4196      3125      4124
 -1      3081    6    0    1
 -2      1049      1064      1011      2522      1336      1390      1454      3105      4140      4188
 -1      3082    6    0    1
 -2      1007       222      1470      2559      1172      1763      4230      4388      4390      4389
 -1      3083    6    0    1
 -2       562       571       486      2526       843       840       841      3339      4141      4194
 -1      3084    6    0    1
 -2      2049      2034      1964      2526      2317      2316      2313      4137      3342      4197
 -1      3085    6    0    1
 -2      1007      2519      1062      2559      4185      4132      1298      4388      4133      4035
 -1      3086    6    0    1
 -2      1540      2519      1470      2559      4134      4184      1815      4064      4133      4389
 -1      3087    6    0    1
 -2       557       520       558      2506       945       819       960      3028      3534      3818
 -1      3088    6    0    1
 -2       555       558       482      2507       823       820       821      3031      3819      3821
 -1      3089    6    0    1
 -2      1535      2529      1475      2545      4165      4204      1842      3977      4125      4359
 -1      3090    6    0    1
 -2      1549      1533      1487      2490      1905      1904      1902      2678      2776      3771
 -1      3091    6    0    1
 -2      2006      2036      2025      2531      2370      2392      2342      4207      3187      4160
 -1      3092    6    0    1
 -2      1031      1045      1052      2510      1450      1464      1330      3514      3113      3378
 -1      3093    6    0    1
 -2      2033      1960      2047      2510      2296      2293      2297      3115      3513      3833
 -1      3094    6    0    1
 -2       560       533       554      2511       968       811       969      3831      3519      3110
 -1      3095    6    0    1
 -2      1550      1542      1522      2511      1804      1938      1868      3386      3116      3518
 -1      3096    6    0    1
 -2      1553      1469      1499      2507      1812      1810      1813      3039      3817      3438
 -1      3097    6    0    1
 -2       559       530       560      2508       899       967       838      3021      3525      3830
 -1      3098    6    0    1
 -2       978      1052      1047      2509      1329      1331      1328      3527      3377      3503
 -1      3099    6    0    1
 -2      1550      1480      1541      2508      1869      1866      1870      3382      3523      3024
 -1      3100    6    0    1
 -2      2047      1997      2032      2509      2294      2377      2363      3832      3521      4032
 -1      3101    6    0    1
 -2      1498      1554      1499      2506      1932      1934      1811      3533      3051      3435
 -1      3102    6    0    1
 -2      1061      1048       992      2541      1403      1402      1399      3608      3343      3656
 -1      3103    6    0    1
 -2       582      2061       416      2471      4287      4391      4357      4289      4290      4358
 -1      3104    6    0    1
 -2      1532      1559      1511      2473      1899      1854      1951      3762      2641      3985
 -1      3105    6    0    1
 -2      1073       339       344      2472      4383       376      4384      4271      3627      4326
 -1      3106    6    0    1
 -2      1557      1545      1492      2512      1829      1924      1921      3044      3369      3834
 -1      3107    6    0    1
 -2      1515      1560      1530      2525      1834      1898      1954      4144      3122      4206
 -1      3108    6    0    1
 -2       563       528       546      2530       894       868       914      3198      4208      4168
 -1      3109    6    0    1
 -2       266      2058      1072      1971      2068      4296      1079      2186      2188      4297
 -1      3110    6    0    1
 -2      2053      2001      2002      2514      2441      2338      2442      3068      3794      3465
 -1      3111    6    0    1
 -2      2061       412       416      2471      4386       442      4391      4290      3598      4358
 -1      3112    6    0    1
 -2      2496      2504      2453      2505      3367      2615      2935      3409      4392      3190
 -1      3113    6    0    1
 -2      1504      1503      1556      2530      1846      1943      1945      4172      4198      3185
 -1      3114    6    0    1
 -2       988      1074      1567       231      1199      4277      4276      1197      1088      1581
 -1      3115    6    0    1
 -2      1039      2531       997      2554      4167      4202      1427      3063      4161      4382
 -1      3116    6    0    1
 -2       487       513       550      2512       844       847       846      3837      3836      3047
 -1      3117    6    0    1
 -2       574       513       512      2513       954       845       952      3043      3838      3557
 -1      3118    6    0    1
 -2      2005       161      1973      2539      2177      2173      2178      3653      4365      2963
 -1      3119    6    0    1
 -2       529       485       161      2539       796       792       794      3272      2965      4365
 -1      3120    6    0    1
 -2       493       579      2055      2491       709      4292      3324      3322      4293      3323
 -1      3121    6    0    1
 -2      1545      1546      1517      2513      1956      1836      1923      3373      3056      3555
 -1      3122    6    0    1
 -2      1511      1559      1477      2528      1854      1851      1852      4171      3129      4205
 -1      3123    6    0    1
 -2       507       538       150      2538       763       759       761      2959      3916      4371
 -1      3124    6    0    1
 -2      1535      1551      1475      2529      1843      1841      1842      4165      3147      4204
 -1      3125    6    0    1
 -2       483       519       152      2537       769       765       767      3912      3166      4369
 -1      3126    6    0    1
 -2      1047      1052      1023      2493      1331      1463      1396      3603      3375      3681
 -1      3127    6    0    1
 -2      1505      1550      1541      2493      1800      1870      1885      3685      3381      2895
 -1      3128    6    0    1
 -2       535       506       159      2540       790       786       788      2954      3414      4370
 -1      3129    6    0    1
 -2      1994      2017       159      2540      2172      2171      2167      3412      2956      4370
 -1      3130    6    0    1
 -2       152      1992      1991      2537      2146      2151      2150      4369      3674      3920
 -1      3131    6    0    1
 -2      2016      1962       150      2538      2145      2144      2140      3924      2961      4371
 -1      3132    6    0    1
 -2      1075      1001       414      2500      1102      3594      4393      4303      3551      3595
 -1      3133    6    0    1
 -2       137      1986      2009      2543      2101      2106      2105      4372      3060      2628
 -1      3134    6    0    1
 -2      1557      1472      1545      2494      1828      1825      1829      3913      3711      3368
 -1      3135    6    0    1
 -2      1052      1045      1026      2498      1464      1305      1462      3402      2851      3687
 -1      3136    6    0    1
 -2      1550      1467      1542      2498      1801      1802      1804      3405      3686      2852
 -1      3137    6    0    1
 -2       572       524       523      2527       963       865       961      3120      3470      3800
 -1      3138    6    0    1
 -2       340       345      1488      2470       383      4328      3398      3663      4317      3664
 -1      3139    6    0    1
 -2      2452      2504      2496      2505      2966      3367      3227      2992      4392      3409
 -1      3140    6    0    1
 -2       581        97      1563      1568       595      1690      4263      4262      1578      1692
 -1      3141    6    0    1
 -2      1965      2038      2039      2533      2320      2322      2319      3632      3072      3886
 -1      3142    6    0    1
 -2      2059      2055       132       579      2091      2090      2065      4291      4292       586
 -1      3143    6    0    1
 -2       980      1043      1005      2494      1340      1339      1338      3709      3929      3425
 -1      3144    6    0    1
 -2      1566       345       580      2470      4329      4327      4309      4312      4317      4311
 -1      3145    6    0    1
 -2       997      1039      1054      2531      1427      1426      1425      4202      4167      3195
 -1      3146    6    0    1
 -2      1004      1005      1067      2499      1337      1447      1446      3706      3424      3048
 -1      3147    6    0    1
 -2      1061      1057       975      2501      1316      1315      1312      3665      2998      3909
 -1      3148    6    0    1
 -2      1545      1516      1546      2499      1826      1927      1956      3388      3707      2980
 -1      3149    6    0    1
 -2       582       577      2056      2471       803      3351      4288      4289      3293      3350
 -1      3150    6    0    1
 -2       419      1075       414      2500      4394      4393       453      4378      4303      3595
 -1      3151    6    0    1
 -2       333      1037       346      2497      3345      4373       380      3349      3347      4375
 -1      3152    6    0    1
 -2       406      2054       419      2500      3317      4376       446      3320      3321      4378
 -1      3153    6    0    1
 -2      2505      2544      2028      2558      3488      3329      3374      3668      4260      4395
 -1      3154    6    0    1
 -2      2010      2039      2040      2534      2318      2449      2425      3643      3905      3124
 -1      3155    6    0    1
 -2      1967      2011       135      2542      2100      2099      2095      3974      3118      4385
 -1      3156    6    0    1
 -2      1042       991      1006      2504      1394      1195      1395      3459      2610      3588
 -1      3157    6    0    1
 -2      1548      1501      2520      2559      1940      4152      4010      4008      4313      4009
 -1      3158    6    0    1
 -2      1051      2520       972      2559      4025      4151      1300      4026      4009      4314
 -1      3159    6    0    1
 -2      1038      1065      1017      2514      1421      1459      1460      3795      3076      3497
 -1      3160    6    0    1
 -2      1072       986      1971      2497      1202      3537      4297      4298      3536      3535
 -1      3161    6    0    1
 -2       485      1973       161      2539      2964      2173       792      2965      2963      4365
 -1      3162    6    0    1
 -2      1061      1009      1057      2532      1400      1452      1316      3605      3623      3135
 -1      3163    6    0    1
 -2       535       159      2017      2540       788      2171      2951      2954      4370      2956
 -1      3164    6    0    1
 -2       507       150      1962      2538       761      2144      2957      2959      4371      2961
 -1      3165    6    0    1
 -2       152       519      1992      2537       765      4053      2146      4369      3166      3674
 -1      3166    6    0    1
 -2      2005      2028      1961      2505      2299      2298      2181      3652      3374      3661
 -1      3167    6    0    1
 -2      1503      1476        79      2555      1640      1636      1638      4362      3926      4364
 -1      3168    6    0    1
 -2      1983      2018       291      2546      2263      2259      2261      4333      3846      4335
 -1      3169    6    0    1
 -2        90      1466      1519      2548      1671      1673      1669      4330      4331      3848
 -1      3170    6    0    1
 -2       993       291      1033      2546      1276      1272      1277      4334      4335      3845
 -1      3171    6    0    1
 -2        90       509       527      2548       682       687       686      4330      3850      4332
 -1      3172    6    0    1
 -2       505       540       154      2547       775       771       773      3842      4337      4338
 -1      3173    6    0    1
 -2      1958      2015       154      2547      2157      2156      2152      4336      3841      4338
 -1      3174    6    0    1
 -2       220      1032       976      2549      1166      1168      1164      4339      4340      4004
 -1      3175    6    0    1
 -2      1524       220      1479      2549      1757      1753      1758      4341      4339      4003
 -1      3176    6    0    1
 -2      1030       209       983      2545      1131      1133      1135      3877      4360      4361
 -1      3177    6    0    1
 -2      1970       275      2014      2552      2211      2213      2215      4342      4343      3854
 -1      3178    6    0    1
 -2      1024       999       275      2552      1229      1228      1224      4344      3853      4343
 -1      3179    6    0    1
 -2      2023      1993      2050      2532      2433      2305      2383      3621      3887      3041
 -1      3180    6    0    1
 -2       215      1482      1513      2557      1738      1743      1742      4345      3874      4347
 -1      3181    6    0    1
 -2       142      1980      1999      2553      2116      2121      2120      4348      3858      4350
 -1      3182    6    0    1
 -2       142       525       502      2553       737       739       735      4348      4349      3857
 -1      3183    6    0    1
 -2      2504      2505      2452      2558      4392      2992      2966      3998      3668      3287
 -1      3184    6    0    1
 -2       981      1028       205      2550      1123      1119      1121      4366      4023      4368
 -1      3185    6    0    1
 -2       492       537        74      2551       639       638       634      4356      3868      4355
 -1      3186    6    0    1
 -2      2024      2051      1993      2541      2356      2431      2432      3657      3231      3888
 -1      3187    6    0    1
 -2      1477        74      1510      2551      1621      1623      1625      4354      4355      3898
 -1      3188    6    0    1
 -2       148       486       517      2556       755       757       753      4352      4353      3895
 -1      3189    6    0    1
 -2      1995      1964       148      2556      2139      2138      2134      3896      4351      4352
 -1      3190    6    0    1
 -2      1011       990       215      2557      1153      1149      1151      4346      3875      4345
 -1      3191    6    0    1
 -2       498       543       137      2543       724       720       722      2626      3201      4372
 -1      3192    6    0    1
 -2      1075      1974      1070      2500      4300      4396      1296      4303      4304      4014
 -1      3193    6    0    1
 -2       576      1562       580      2470      3791      4310       612      3790      3789      4311
 -1      3194    6    0    1
 -2       280      1066       997      2554      1239      1244      1243      4380      3885      4382
 -1      3195    6    0    1
 -2       209      1558      1475      2545      1720      1725      1724      4360      3866      4359
 -1      3196    6    0    1
 -2      1067      1005      1041      2534      1447      1448      1351      3073      3426      3644
 -1      3197    6    0    1
 -2      2006      1969       280      2554      2230      2226      2228      4381      3890      4380
 -1      3198    6    0    1
 -2        79       491       528      2555       649       654       653      4364      3892      4363
 -1      3199    6    0    1
 -2      1036      1005      1043      2533      1449      1339      1417      3630      3442      3127
 -1      3200    6    0    1
 -2       135       548       489      2542       716       718       714      4385      3117      3941
 -1      3201    6    0    1
 -2       409       413       410      2469       475       474       468      3210      3365      3307
 -1      3202    6    0    1
 -2      1983       993      2516      2546      4229      4182      4180      4333      4334      4112
 -1      3203    6    0    1
 -2       527      2517      1466      2548      4178      4179      4227      4332      4115      4331
 -1      3204    6    0    1
 -2       540      2515      1958      2547      4186      4187      4231      4337      4118      4336
 -1      3205    6    0    1
 -2      1524      2520      1032      2549      4183      4181      4228      4341      4110      4340
 -1      3206    6    0    1
 -2      1970      2523      1024      2552      4191      4190      4233      4342      4102      4344
 -1      3207    6    0    1
 -2      1999      2524       525      2553      4192      4193      4235      4350      4123      4349
 -1      3208    6    0    1
 -2      1011      1513      2522      2557      4234      4189      4188      4346      4347      4136
 -1      3209    6    0    1
 -2      1964      2526       486      2556      4197      4194      4242      4351      4138      4353
 -1      3210    6    0    1
 -2      1548      1540      1501      2559      1942      1816      1940      4008      4064      4313
 -1      3211    6    0    1
 -2      1051       972      1062      2559      1300      1297      1301      4026      4314      4035
 -1      3212    6    0    1
 -2      1531      1530       205      2550      1713      1712      1708      4024      4367      4368
 -1      3213    6    0    1
 -2      2002      1969      2025      2554      2339      2341      2340      3468      3890      4054
 -1      3214    6    0    1
 -2       338       334       337      2491       396       394       397      3508      3156      2973
 -1      3215    6    0    1
 -2       492      1477      2528      2551      4249      4205      4203      4356      4354      4129
 -1      3216    6    0    1
 -2      1059      1058      1030      2545      1438      1365      1354      3951      3944      3877
 -1      3217    6    0    1
 -2       524       546       491      2555       867       866       864      3473      4060      3892
 -1      3218    6    0    1
 -2      1974      2500      2062      2558      4304      3333      2367      4397      3289      3483
 -1      3219    6    0    1
 -2      1475      2529       983      2545      4204      4196      4243      4359      4125      4361
 -1      3220    6    0    1
 -2      1043      1028      1055      2550      1341      1344      1418      3128      4023      3074
 -1      3221    6    0    1
 -2       566       567       537      2551       925       862       871      3969      3955      3868
 -1      3222    6    0    1
 -2       505       570       556      2547       932       808       935      3842      3451      4048
 -1      3223    6    0    1
 -2      1050      1048       976      2549      1321      1318      1319      3258      3344      4004
 -1      3224    6    0    1
 -2      1046      1053      1033      2546      1326      1407      1386      3183      3098      3845
 -1      3225    6    0    1
 -2      2029      2030      2018      2546      2450      2311      2408      3095      3177      3846
 -1      3226    6    0    1
 -2      1539      1519      1538      2548      1918      1797      1957      3179      3848      3092
 -1      3227    6    0    1
 -2       561       552       509      2548       833       951       948      3181      3100      3850
 -1      3228    6    0    1
 -2      2031      2015      2043      2547      2413      2285      2439      3457      3841      4071
 -1      3229    6    0    1
 -2      1554      1544      1479      2549      1865      1862      1863      3052      3036      4003
 -1      3230    6    0    1
 -2      1476      1504      1533      2555      1845      1848      1847      3926      3131      3132
 -1      3231    6    0    1
 -2      2045      2044      1980      2553      2399      2396      2397      3963      3967      3858
 -1      3232    6    0    1
 -2       502       567       566      2553       921       925       924      3857      3958      3972
 -1      3233    6    0    1
 -2      1510      1535      1511      2551      1948      1950      1853      3898      3978      3986
 -1      3234    6    0    1
 -2      2044      2045      2014      2552      2399      2346      2335      3965      3962      3854
 -1      3235    6    0    1
 -2      1058      1059       999      2552      1438      1435      1436      3947      3954      3853
 -1      3236    6    0    1
 -2      1552      1482      1556      2557      1878      1879      1881      3136      3874      3186
 -1      3237    6    0    1
 -2      1530      2525       981      2550      4206      4195      4244      4367      4108      4366
 -1      3238    6    0    1
 -2       528      2530      1503      2555      4208      4198      4247      4363      4169      4362
 -1      3239    6    0    1
 -2      1054       990      1064      2557      1392      1389      1393      3196      3875      3148
 -1      3240    6    0    1
 -2       137       543      1986      2543       720      3200      2101      4372      3201      3060
 -1      3241    6    0    1
 -2      1528      1553      1499      2501      1889      1813      1935      3908      3010      3437
 -1      3242    6    0    1
 -2       997      2531      2006      2554      4202      4207      4248      4382      4161      4381
 -1      3243    6    0    1
 -2      2058       346      1072      2497      4387      4374      4296      4299      4375      4298
 -1      3244    6    0    1
 -2       517       571       563      2556       839       895       912      3895      3150      3199
 -1      3245    6    0    1
 -2      2036      2049      1995      2556      2374      2314      2390      3188      3143      3896
 -1      3246    6    0    1
 -2      2027      2505      2028      2558      3667      3374      2300      3481      3668      4395
 -1      3247    6    0    1
 -2      2011       548       135      2542      3057       716      2099      3118      3117      4385
 -1      3248    6    0    1
 -2      1515      1531      1557      2550      1955      1827      1953      3032      4024      3045
 -1      3249    6    0    1
 -2      2043      2019      1996      2561      2437      2254      2438      4074      4253      4087
 -1      3250    6    0    1
 -2      1540      1520      1491      2560      1919      1667      1920      4065      4089      4252
 -1      3251    6    0    1
 -2       515       479       570      2560       681       805       804      4250      4088      3546
 -1      3252    6    0    1
 -2       994      1051      1027      2561      1412      1411      1268      4255      4027      4086
 -1      3253    6    0    1
 -2      2504      2544      2505      2558      3460      3488      4392      3998      4260      3668
 -1      3254    6    0    1
 -2       407       410       411      2492       467       470       469      3219      2975      3423
 -1      3255    6    0    1
 -2      1511      1535      1558      2545      1950      1844      1952      3984      3977      3866
 -1      3256    6    0    1
 -2      1017      1039      1066      2554      1359      1428      1461      3062      3063      3885
 -1      3257    6    0    1
 -2      1007      1470      2519      2559      4230      4184      4185      4388      4389      4133
 -1      3258    6    0    1
 -2       419      2060      1075      2500      4377      4301      4394      4378      4302      4303
 -1      3259    6    0    1
 -2      2028      2544      1990      2558      3329      4398      2376      4395      4260      4399
 -1      3260    6    0    1
 -2      1494      1495      1525      2536      1855      1929      1926      3649      2969      3142
 -1      3261    6    0    1
 -2      2026      2002      2052      2562      2444      2443      2130      4258      3581      4104
 -1      3262    6    0    1
 -2       524       545       573      2562       964       748       965      3578      4256      4103
 -1      3263    6    0    1
 -2      1007       972       222      2559      1174      1170      1172      4388      4314      4390
 -1      3264    6    0    1
 -2      1470       222      1501      2559      1763      1759      1764      4389      4390      4313
 -1      3265    6    0    1
 -2      2453      2505      2504      2544      3190      4392      2615      3263      3488      3460
 -1      3266    6    0    1
 -2      1048      1061      1012      2502      1403      1313      1317      3997      3607      4031
 -1      3267    6    0    1
 -2       547       514       549      2496       886       896       817      3228      3937      2941
 -1      3268    6    0    1
 -2       494       541       542      2495       882       883       881      3935      3304      2926
 -1      3269    6    0    1
 -2       336       340       337      2470       402       401       395      3296      3663      3650
 -1      3270    6    0    1
 -2       541       510       542      2535       875       854       883      2977      3672      3416
 -1      3271    6    0    1
 -2      1514      1557      1492      2512      1922      1921      1613      2786      3044      3834
 -1      3272    6    0    1
 -2       557       508       520      2506       944       672       945      3028      2864      3534
 -1      3273    6    0    1
 -2       555       482       536      2507       821       666       822      3031      3821      2862
 -1      3274    6    0    1
 -2      1521      1469      1553      2507      1652      1812      1814      2841      3817      3039
 -1      3275    6    0    1
 -2      1480      1512      1541      2508      1685      1867      1866      3523      2811      3024
 -1      3276    6    0    1
 -2       978      1047      1022      2509      1328      1327      1289      3527      3503      4082
 -1      3277    6    0    1
 -2      2033      1998      1960      2510      2295      2269      2296      3115      3312      3513
 -1      3278    6    0    1
 -2       480       554       533      2511       812       811       693      3308      3110      3519
 -1      3279    6    0    1
 -2      1542      1500      1522      2511      1937      1679      1938      3116      3314      3518
 -1      3280    6    0    1
 -2      1031      1008      1045      2510      1283      1451      1450      3514      3310      3113
 -1      3281    6    0    1
 -2      2020      1989      1988      2503      2426      2349      2422      3017      3366      3788
 -1      3282    6    0    1
 -2      1498      1497      1554      2506      1658      1933      1932      3533      2858      3051
 -1      3283    6    0    1
 -2      1034      1035      1002      2503      1375      1348      1367      3358      3004      3823
 -1      3284    6    0    1
 -2       530       559       497      2508       899       898       699      3525      3021      2868
 -1      3285    6    0    1
 -2      1997      1976      2032      2509      2275      2378      2377      3521      4084      4032
 -1      3286    6    0    1
 -2       534       487       550      2512       627       846       848      2854      3837      3047
 -1      3287    6    0    1
 -2      1474      1517      1546      2513      1607      1836      1835      2880      3555      3056
 -1      3288    6    0    1
 -2      1468      1536      1537      2496      1807      1808      1806      3943      3256      2933
 -1      3289    6    0    1
 -2       511       574       512      2513       953       952       621      2804      3043      3557
 -1      3290    6    0    1
 -2      1525      1495      1526      2495      1929      1930      1838      2938      3316      3939
 -1      3291    6    0    1
 -2      2018      1033       291      2546      3843      1272      2259      3846      3845      4335
 -1      3292    6    0    1
 -2        90      1519       509      2548      1669      3849       682      4330      3848      3850
 -1      3293    6    0    1
 -2       505       154      2015      2547       773      2156      3840      3842      4338      3841
 -1      3294    6    0    1
 -2       976      1479       220      2549      4000      1753      1164      4004      4003      4339
 -1      3295    6    0    1
 -2        79      1476       491      2555      1636      3925       649      4364      3926      3892
 -1      3296    6    0    1
 -2       999      2014       275      2552      3851      2213      1228      3853      3854      4343
 -1      3297    6    0    1
 -2       280      1969      1066      2554      2226      3889      1239      4380      3890      3885
 -1      3298    6    0    1
 -2       209      1030      1558      2545      1131      3876      1720      4360      3877      3866
 -1      3299    6    0    1
 -2      2012      2038      1965      2533      2321      2320      2203      2917      3072      3632
 -1      3300    6    0    1
 -2       142       502      1980      2553       735      3856      2116      4348      3857      3858
 -1      3301    6    0    1
 -2       537      1510        74      2551      3897      1623       638      3868      3898      4355
 -1      3302    6    0    1
 -2      2000      2001      2053      2514      2224      2441      2440      2850      3794      3068
 -1      3303    6    0    1
 -2      1482       215       990      2557      1738      1149      3872      3874      4345      3875
 -1      3304    6    0    1
 -2      1525      1493      1494      2536      1925      1701      1926      3142      3026      3649
 -1      3305    6    0    1
 -2      1530      1560      1486      2525      1898      1897      1716      4206      3122      2644
 -1      3306    6    0    1
 -2      1013      1057      1009      2532      1453      1452      1256      2911      3135      3623
 -1      3307    6    0    1
 -2      1531       205      1028      2550      1708      1119      3994      4024      4368      4023
 -1      3308    6    0    1
 -2       148       517      1995      2556       753      3893      2134      4352      3895      3896
 -1      3309    6    0    1
 -2      1038       996      1065      2514      1238      1422      1421      3795      2845      3076
 -1      3310    6    0    1
 -2      2010      2040      1987      2534      2425      2424      2197      3643      3124      3173
 -1      3311    6    0    1
 -2      2016      1964      2034      2526      2142      2316      2315      3923      4197      3342
 -1      3312    6    0    1
 -2      2031      2043      1996      2561      2439      2438      2308      3543      4074      4087
 -1      3313    6    0    1
 -2      1027      1051      1062      2561      1411      1301      1385      4086      4027      4038
 -1      3314    6    0    1
 -2       570       479       556      2560       805       806       808      3546      4088      4051
 -1      3315    6    0    1
 -2      1520      1540      1548      2560      1919      1942      1793      4089      4065      4011
 -1      3316    6    0    1
 -2      1502      1556      1503      2530      1944      1943      1643      2855      3185      4198
 -1      3317    6    0    1
 -2       522       572       523      2527       962       961       648      2846      3120      3800
 -1      3318    6    0    1
 -2      1524      1548      1501      2520      1941      1940      1761      4183      4010      4152
 -1      3319    6    0    1
 -2       527       551       480      2517       810       809       690      4178      3083      3309
 -1      3320    6    0    1
 -2      2013      1984      2030      2518      2163      2411      2410      2825      3777      3176
 -1      3321    6    0    1
 -2      1032       972      1051      2520      1171      1300      1299      4181      4151      4025
 -1      3322    6    0    1
 -2      1547      1466      1500      2517      1795      1676      1796      3091      4179      3315
 -1      3323    6    0    1
 -2       993      1044      1008      2516      1405      1404      1280      4182      3080      3311
 -1      3324    6    0    1
 -2      1470      1539      1523      2519      1818      1817      1767      4184      3178      2822
 -1      3325    6    0    1
 -2      1983      1998      2041      2516      2266      2407      2406      4180      3313      3088
 -1      3326    6    0    1
 -2      1046      1007       977      2519      1322      1177      1323      3182      4185      2827
 -1      3327    6    0    1
 -2       484       561       516      2518       830       829       781      2830      3180      3778
 -1      3328    6    0    1
 -2       540       553       483      2515       827       826       772      4186      3335      3911
 -1      3329    6    0    1
 -2      1991      2035      1958      2515      2284      2283      2154      3919      3341      4187
 -1      3330    6    0    1
 -2       532       501       565      2521       730       919       918      3486      2831      3102
 -1      3331    6    0    1
 -2      2042      2003      1966      2521      2323      2112      2324      3077      2807      3487
 -1      3332    6    0    1
 -2      1049      1011      1029      2522      1454      1156      1455      3105      4188      3055
 -1      3333    6    0    1
 -2      1484      1513      1543      2522      1746      1888      1887      3066      4189      3106
 -1      3334    6    0    1
 -2       525       499       569      2524       742       907       906      4193      2835      3107
 -1      3335    6    0    1
 -2      1978      1999      2048      2524      2124      2386      2385      2837      4192      3108
 -1      3336    6    0    1
 -2      1060      1024       998      2523      1429      1226      1430      3104      4190      2816
 -1      3337    6    0    1
 -2      1970      2046      2007      2523      2344      2343      2212      4191      3103      2817
 -1      3338    6    0    1
 -2       538       562       486      2526       842       841       760      3915      3339      4194
 -1      3339    6    0    1
 -2      1551      1508      1475      2529      1840      1728      1841      3147      2663      4204
 -1      3340    6    0    1
 -2      1518      1549      1485      2527      1895      1894      1634      3799      3126      2907
 -1      3341    6    0    1
 -2      1056       981      1014      2525      1342      1126      1343      3121      4195      2820
 -1      3342    6    0    1
 -2      1073      1478       199      1069      4268      1694      1082      1105      3283      1103
 -1      3343    6    0    1
 -2      1509      1477      1559      2528      1622      1851      1850      2666      4205      3129
 -1      3344    6    0    1
 -2      1063       983      1015      2529      1352      1138      1353      3125      4196      2838
 -1      3345    6    0    1
 -2      1975      2036      2006      2531      2371      2370      2233      2920      3187      4207
 -1      3346    6    0    1
 -2       568       492       521      2528       869       636       870      3130      4203      2805
 -1      3347    6    0    1
 -2      1976      1022       296      2544      4095      1287      2274      4085      4083      4400
 -1      3348    6    0    1
 -2      1010       997      1054      2531      1247      1425      1424      2886      4202      3195
 -1      3349    6    0    1
 -2        65       580       576      1562       589       612       611      1596      4310      3791
 -1      3350    6    0    1
 -2       528       563       496      2530       894       893       657      4208      3198      2909
 -1      3351    6    0    1
 -2       542       510       489      2535       854       715       855      3416      3672      3940
 -1      3352    6    0    1
 -2       575       495       583      2469       889       887       890      3364      3698      2572
 -1      3353    6    0    1
 -2      1075      1974       298      1070      4300      2280      1085      1296      4396      1293
 -1      3354    6    0    1
 -2      2027      2028      1990      2558      2300      2376      2364      3481      4395      4399
 -1      3355    6    0    1
 -2      1072       986       266      1971      1202      1201      1079      4297      3537      2186
 -1      3356    6    0    1
 -2      2056       582       164       577      4288       592      2182      3351       803       801
 -1      3357    6    0    1
 -2       573       546       524      2562       915       867       965      4103      4062      3578
 -1      3358    6    0    1
 -2      2002      2025      2052      2562      2340      2394      2443      3581      4057      4104
 -1      3359    6    0    1
 -2       231      1567       988      1481      1581      4276      1197      1786      1789      3291
 -1      3360    6    0    1
 -2      1478      1527      1564      2472      1859      1860      1858      3282      3401      2585
 -1      3361    6    0    1
 -2      1977      2023      2050      2532      2242      2383      2382      2916      3621      3041
 -1      3362    6    0    1
 -2      2021      1989      2020      2535      2427      2426      2330      3678      3236      3434
 -1      3363    6    0    1
 -2       413       409       418      2469       475       456       435      3365      3210      4267
 -1      3364    6    0    1
 -2       495        97      1563       581       703      1690      3700       706       595      4263
 -1      3365    6    0    1
 -2       579      2055       132       493      4292      2090       586       709      3324       707
 -1      3366    6    0    1
 -2       974      1070       297      2558      1295      1294      1290      4281      4015      4401
 -1      3367    6    0    1
 -2      1034       987      1035      2536      1376      1373      1375      3206      3670      3197
 -1      3368    6    0    1
 -2       995      1036      1043      2533      1217      1417      1416      2923      3630      3127
 -1      3369    6    0    1
 -2       297      1070      1974      2558      1294      4396      2279      4401      4015      4397
 -1      3370    6    0    1
 -2       493       578       544      2491       876       879       878      3322      2590      3155
 -1      3371    6    0    1
 -2      1041       982      1067      2534      1211      1349      1351      3644      3070      3073
 -1      3372    6    0    1
 -2      1569      1561      1481      2492      1876      1875      1873      2579      3221      3202
 -1      3373    6    0    1
 -2      1076       988      1068      2492      1381      1382      1383      3225      3290      3421
 -1      3374    6    0    1
 -2       972      1501       222      2559      4149      1759      1170      4314      4313      4390
 -1      3375    6    0    1
 -2      1069      1071      1000      2472      1440      1439      1441      3281      3222      3493
 -1      3376    6    0    1
 -2      1003      1035       987      2536      1374      1373      1111      3160      3197      3670
 -1      3377    6    0    1
 -2      2021      2020      1967      2535      2330      2331      2097      3678      3434      3973
 -1      3378    6    0    1
 -2      1563      1489      1569      2469      1911      1910      1912      3699      3211      2578
 -1      3379    6    0    1
 -2      1974      2054      2062      2500      2368      2369      2367      4304      3321      3333
 -1      3380    6    0    1
 -2      1971      2057      2022      2497      2350      2352      2353      3535      3239      3355
 -1      3381    6    0    1
 -2      1070       974      1040      2558      1295      1310      1311      4015      4281      3494
 -1      3382    6    0    1
 -2       296      1990      1976      2544      2276      2278      2274      4400      4398      4085
 -1      3383    6    0    1
 -2      1071       986      1037      2497      1370      1372      1371      3216      3536      3347
 -1      3384    6    0    1
 -2       341       342       333      2497       392       391       390      3447      2931      3349
 -1      3385    6    0    1
 -2       414       415       406      2500       464       463       465      3595      2948      3320
 -1      3386    6    0    1
 -2      2056      2062      1982      2471      2405      2403      2404      3350      3479      3445
 -1      3387    6    0    1
 -2       577       504       583      2471       930       929       931      3293      3542      2574
 -1      3388    6    0    1
 -2       974       296      1022      2544      1291      1287      1292      4280      4400      4083
 -1      3389    6    0    1
 -2       581       495       575      2469       706       889       605      4264      3698      3364
 -1      3390    6    0    1
 -2       992      1048      1019      2541      1402      1401      1262      3656      3343      3016
 -1      3391    6    0    1
 -2      2057      2055      1981      2491      2401      2402      2400      3265      3323      3507
 -1      3392    6    0    1
 -2      1070      2500      1974      2558      4014      4304      4396      4015      3289      4397
 -1      3393    6    0    1
 -2       974       297      1990      2558      1290      2277      4402      4281      4401      4399
 -1      3394    6    0    1
 -2       296       974      1990      2544      1291      4402      2276      4400      4280      4398
 -1      3395    6    0    1
 -2       343       334       338      2491       366       396       369      4306      3156      3508
 -1      3396    6    0    1
 -2      1563      1568      1489      2469      1692      1591      1911      3699      4265      3211
 -1      3397    6    0    1
 -2       576       503       578      2470       927       926       928      3790      3297      2589
 -1      3398    6    0    1
 -2      1070      1076      1001      2500      1444      1442      1443      4014      3286      3551
 -1      3399    6    0    1
 -2       411       417       407      2492       449       460       469      3423      4308      3219
 -1      3400    6    0    1
 -2       417        60       407      1561       432       457       460      4307      1593      3218
 -1      3401    6    0    1
 -2        11       343       544       334       349      4305       600       363       366      3153
 -1      3402    6    0    1
 -2      1562      1564      1488      2470      1909      1907      1908      3789      2582      3664
 -1      3403    6    0    1
 -2       416       412       408      2471       442       471       439      4358      3598      3637
 -1      3404    6    0    1
 -2      2051      2024      1972      2541      2356      2248      2357      3231      3657      3014
 -1      3405    6    0    1
 -2       336         9       345       503       361       351       362      3295       596      4316
 -1      3406    6    0    1
 -2       409      1489        58       418      3208      1589       455       456      4266       426
 -1      3407    6    0    1
 -2       340       336       345      2470       402       362       383      3663      3296      4317
 -1      3408    6    0    1
 -2       344       339       335      2472       376       398       387      4326      3627      3585
 -1      3409    6    0    1
 -2      1565      1527      1478      2472      1588      1859      1695      4270      3401      3282
 -1      3410    6    0    1
 -2      1503      1504      1476      2555      1846      1845      1640      4362      3131      3926
 -1      3411    6    0    1
 -2       297      1974      1990      2558      2279      2281      2277      4401      4397      4399
 -1      3412    6    0    1
 -2      1069      1000      1073      2472      1441      1091      1105      3281      3493      4271
 -1      3413    6    0    1
 -2      1074      1068       988      2492      1098      1382      1199      4278      3421      3290
 -1      3414    6    0    1
 -2      1481      1561      1567      2492      1875      1595      1789      3202      3221      4279
 -1      3415    6    0    1
 -2      1511      1477      1510      2551      1852      1625      1853      3986      4354      3898
 -1      3416    6    0    1
 -2       983      1059      1030      2545      1355      1354      1135      4361      3951      3877
 -1      3417    6    0    1
 -2        60       417      1567      1561       432      4320      1579      1593      4307      1595
 -1      3418    6    0    1
 -2       343       579        11       544      4315       584       349      4305       602       600
 -1      3419    6    0    1
 -2       981      1055      1028      2550      1345      1344      1123      4366      3074      4023
 -1      3420    6    0    1
 -2      2006      2025      1969      2554      2342      2341      2230      4381      4054      3890
 -1      3421    6    0    1
 -2      1479      1544      1524      2549      1862      1861      1758      4003      3036      4341
 -1      3422    6    0    1
 -2      1983      2029      2018      2546      2409      2408      2263      4333      3095      3846
 -1      3423    6    0    1
 -2      1538      1519      1466      2548      1797      1673      1798      3092      3848      4331
 -1      3424    6    0    1
 -2      1033      1053       993      2546      1407      1406      1277      3845      3098      4334
 -1      3425    6    0    1
 -2       509       552       527      2548       951       950       687      3850      3100      4332
 -1      3426    6    0    1
 -2      1050       976      1032      2549      1319      1168      1320      3258      4004      4340
 -1      3427    6    0    1
 -2       540       505       556      2547       775       935       934      4337      3842      4048
 -1      3428    6    0    1
 -2      2015      1958      2043      2547      2157      2286      2285      3841      4336      4071
 -1      3429    6    0    1
 -2      2014      2045      1970      2552      2346      2345      2215      3854      3962      4342
 -1      3430    6    0    1
 -2      1058       999      1024      2552      1436      1229      1437      3947      3853      4344
 -1      3431    6    0    1
 -2       567       502       525      2553       921       739       922      3958      3857      4349
 -1      3432    6    0    1
 -2      1980      2044      1999      2553      2396      2395      2121      3858      3967      4350
 -1      3433    6    0    1
 -2      1552      1513      1482      2557      1877      1743      1878      3136      4347      3874
 -1      3434    6    0    1
 -2       493       544       579      2491       878       602       709      3322      3155      4293
 -1      3435    6    0    1
 -2       537       492       566      2551       639       872       871      3868      4356      3969
 -1      3436    6    0    1
 -2       491       546       528      2555       866       868       654      3892      4060      4363
 -1      3437    6    0    1
 -2       517       486       571      2556       757       840       839      3895      4353      3150
 -1      3438    6    0    1
 -2      1995      2049      1964      2556      2314      2313      2139      3896      3143      4351
 -1      3439    6    0    1
 -2      1515      1530      1531      2550      1954      1713      1955      3032      4367      4024
 -1      3440    6    0    1
 -2      1064       990      1011      2557      1389      1153      1390      3148      3875      4346
 -1      3441    6    0    1
 -2      1066      1039       997      2554      1428      1427      1244      3885      3063      4382
 -1      3442    6    0    1
 -2      1535      1475      1558      2545      1842      1725      1844      3977      4359      3866
 -1      3443    6    0    1
 -2       580       345         9       503      4327       351       588       598      4316       596
 -1      3444    6    0    1
 -2       418      1489        58      1568      4266      1589       426      4295      1591      1577
 -1      3445    6    0    1
 -2      2059      1981      2055      2491      2077      2402      2091      4294      3507      3323
 -1      3446    6    0    1
 -2       420       408       412      2471       472       471       461      3300      3637      3598
 -1      3447    6    0    1
 -2       341       333       346      2497       390       380       373      3447      3349      4375
 -1      3448    6    0    1
 -2      2056      1982      2061      2471      2404      2084      2185      3350      3445      4290
 -1      3449    6    0    1
 -2       582       504       577      2471       609       930       803      4289      3542      3293
 -1      3450    6    0    1
 -2      2060        46      2054       419      2073      2085      2088      4377       427      4376
 -1      3451    6    0    1
 -2      1072        25      1037       346      1078      1092      1095      4374       356      4373
 -1      3452    6    0    1
 -2      2050      1962      2016      2538      2306      2145      2307      3253      2961      3924
 -1      3453    6    0    1
 -2       414       406       419      2500       465       446       453      3595      3320      4378
 -1      3454    6    0    1
 -2       483       557       519      2537       825       824       769      3912      3241      3166
 -1      3455    6    0    1
 -2       507       555       538      2538       943       942       763      2959      3246      3916
 -1      3456    6    0    1
 -2       485       529       559      2539       796       835       834      2965      3272      3240
 -1      3457    6    0    1
 -2      1973      2032      2005      2539      2360      2359      2178      2963      3331      3653
 -1      3458    6    0    1
 -2      1992      2051      1991      2537      2430      2429      2151      3674      3254      3920
 -1      3459    6    0    1
 -2       535       554       506      2540       939       938       790      2954      3250      3414
 -1      3460    6    0    1
 -2      2033      2017      1994      2540      2434      2172      2435      3248      2956      3412
 -1      3461    6    0    1
 -2       972      1007      1062      2559      1174      1298      1297      4314      4388      4035
 -1      3462    6    0    1
 -2      1501      1540      1470      2559      1816      1815      1764      4313      4064      4389
 -1      3463    6    0    1
 -2      2009      1986      2038      2543      2106      2419      2418      2628      3060      3277
 -1      3464    6    0    1
 -2       503       576       580      2470       927       612       598      3297      3790      4311
 -1      3465    6    0    1
 -2       339       347       335      2472       388       399       398      3627      3302      3585
 -1      3466    6    0    1
 -2      2040      2011      1967      2542      2328      2100      2329      3275      3118      3974
 -1      3467    6    0    1
 -2      1562      1488      1566      2470      1908      1584      1598      3789      3664      4312
 -1      3468    6    0    1
 -2       575        37       581       418       604       593       605      4284       425      4283
 -1      3469    6    0    1
 -2       333      1037        25       346      3345      1092       378       380      4373       356
 -1      3470    6    0    1
 -2       406      2054        46       419      3317      2085       444       446      4376       427
 -1      3471    6    0    1
 -2      1990      2544       974      2558      4398      4280      4402      4399      4260      4281
 -1      3472    6    0    1
 -2       411      1068        51       417      3419      1096       448       449      4319       430
 -1      3473    6    0    1
 -2       550       543       498      2543       903       724       904      3280      3201      2626
 -1      3474    6    0    1
 -2      1074        51      1068       417      1087      1096      1098      4318       430      4319
 -1      3475    6    0    1
 -2      1971      2022      2058      2497      2353      2081      2188      3535      3355      4299
 -1      3476    6    0    1
 -2        37       575       413       418       604      3362       433       425      4284       435
 -1      3477    6    0    1
 -2       345      1566        30      1488      4329      1570       353      4328      1584      1583
 -1      3478    6    0    1
 -2       548       574       489      2542       858       857       718      3117      3279      3941
 -1      3479    6    0    1
 -2      1072      1037       986      2497      1095      1372      1202      4298      3347      3536
 -1      3480    6    0    1
 -2      2060      2054      1974      2500      2088      2368      2282      4302      3321      4304
 -1      3481    6    0    1
 -2       335      1527        32      1565      3584      1585       385      4321      1588      1574
 -1      3482    6    0    1
 -2      2059        16      1981       343      2064      2075      2077      4323       350      4322
 -1      3483    6    0    1
 -2      1070      1001      1075      2500      1443      1102      1296      4014      3551      4303
 -1      3484    6    0    1
 -2       338      1981        16       343      3353      2075       368       369      4322       350
 -1      3485    6    0    1
 -2       340       345        30      1488       383       353       381      3398      4328      1583
 -1      3486    6    0    1
 -2       408       504        39       582      3636       606       437      4324       609       591
 -1      3487    6    0    1
 -2       341      2058        18      2022      4379      2066       370      3446      2081      2079
 -1      3488    6    0    1
 -2      1006      1040      1042      2504      1378      1309      1395      3588      3596      3459
 -1      3489    6    0    1
 -2      1565        32       335       344      1574       385      4321      4325       359       387
 -1      3490    6    0    1
 -2      1974      2062      2027      2558      2367      2366      2365      4397      3483      3481
 -1      3491    6    0    1
 -2      2028      2027      1961      2505      2300      2301      2298      3374      3667      3661
 -1      3492    6    0    1
 -2      2028      1976      1990      2544      2375      2278      2376      3329      4085      4398
 -1      3493    6    0    1
 -2       414      1075        53      1001      4393      1083       450      3594      1102      1100
 -1      3494    6    0    1
 -2        18       346      2058       341       355      4387      2066       370       373      4379
 -1      3495    6    0    1
 -2       416       408        39       582       439       437       421      4357      4324       591
 -1      3496    6    0    1
 -2      1022      1042       974      2544      1308      1307      1292      4083      3262      4280
 -1      3497    6    0    1
 -2       339      1073        23      1000      4383      1080       374      3626      1091      1090
 -1      3498    6    0    1
 -2       412      2061        44      1982      4386      2069       440      3597      2084      2083
 -1      3499    6    0    1
 -2      1075        53       419       414      1083       429      4394      4393       450       453
 -1      3500    6    0    1
 -2       160       161       485      1973       194       792       791      2174      2173      2964
 -1      3501    6    0    1
 -2       159       160       535      2017       193       789       788      2171      2170      2951
 -1      3502    6    0    1
 -2       272       271       995      2012       305      1216      1215      2202      2201      3067
 -1      3503    6    0    1
 -2       531       140       141      2004       731       174       732      3747      2114      2113
 -1      3504    6    0    1
 -2      2009       138       137       498      2104       171      2105      2932       723       722
 -1      3505    6    0    1
 -2       274      1024       275      1970      1225      1224       308      2210      4233      2211
 -1      3506    6    0    1
 -2      1480        93        94       530      1680       127      1681      3524       695       694
 -1      3507    6    0    1
 -2      1011       215       216      1513      1151       249      1152      4234      1742      1741
 -1      3508    6    0    1
 -2      1966       139       138       532      2107       172      2108      3485       726       725
 -1      3509    6    0    1
 -2      1522        92        93       533      1677       126      1678      3515       692       691
 -1      3510    6    0    1
 -2      1018       277       276      1968      1230       310      1231      3735      2217      2216
 -1      3511    6    0    1
 -2       143       144       499      1978       177       741       740      2123      2122      3184
 -1      3512    6    0    1
 -2       273       272      1025      1985       306      1219      1218      2205      2204      3714
 -1      3513    6    0    1
 -2       274       273       998      2007       307      1222      1221      2208      2207      3141
 -1      3514    6    0    1
 -2       139       140       501      2003       173       729       728      2111      2110      3146
 -1      3515    6    0    1
 -2       278       277       996      2000       311      1234      1233      2220      2219      3134
 -1      3516    6    0    1
 -2       143       525       142      1999       738       737       176      2119      4235      2120
 -1      3517    6    0    1
 -2       502       141       142      1980       734       175       735      3856      2117      2116
 -1      3518    6    0    1
 -2        86        87      1465       539       120      1660      1659       674       673      3732
 -1      3519    6    0    1
 -2       276       275       999      2014       309      1228      1227      2214      2213      3851
 -1      3520    6    0    1
 -2       161       162       529      2005       195       795       794      2177      2176      3651
 -1      3521    6    0    1
 -2       227       228      1023      1505       261      1188      1187      1778      1777      3684
 -1      3522    6    0    1
 -2      1997       294       295       978      2270       328      2271      3526      1285      1284
 -1      3523    6    0    1
 -2      1972       286       287      1019      2246       320      2247      3301      1261      1260
 -1      3524    6    0    1
 -2      1520        87        88       479      1662       121      1663      4200       677       676
 -1      3525    6    0    1
 -2       219       220       976      1479       253      1164      1163      1754      1753      4000
 -1      3526    6    0    1
 -2      1029       216       217      1484      1154       250      1155      3509      1745      1744
 -1      3527    6    0    1
 -2        88        89      1491       515       122      1666      1665       680       679      3807
 -1      3528    6    0    1
 -2       283       284      1977      1013       317      2238      2237      1252      1251      3053
 -1      3529    6    0    1
 -2       154       153      1958       540       187      2153      2152       771       770      4231
 -1      3530    6    0    1
 -2      2015       155       154       505      2155       188      2156      3840       774       773
 -1      3531    6    0    1
 -2       220       221      1032      1524       254      1167      1166      1757      1756      4228
 -1      3532    6    0    1
 -2       293       294      1960      1031       327      2268      2267      1282      1281      3510
 -1      3533    6    0    1
 -2       225       226       973      1507       259      1182      1181      1772      1771      2593
 -1      3534    6    0    1
 -2      2019       287       288       994      2249       321      2250      3728      1264      1263
 -1      3535    6    0    1
 -2       156       155      1984       516       189      2159      2158       777       776      3779
 -1      3536    6    0    1
 -2       158       159       506      1994       192       786       785      2168      2167      3593
 -1      3537    6    0    1
 -2      1983       291       292       993      2261       325      2262      4229      1276      1275
 -1      3538    6    0    1
 -2      1026       226       227      1467      1184       260      1185      3679      1775      1774
 -1      3539    6    0    1
 -2        91        92      1500       480       125      1675      1674       689       688      3949
 -1      3540    6    0    1
 -2       289       290      1963       989       323      2256      2255      1270      1269      3813
 -1      3541    6    0    1
 -2       221       222       972      1501       255      1170      1169      1760      1759      4149
 -1      3542    6    0    1
 -2      1998       292       293      1008      2264       326      2265      3950      1279      1278
 -1      3543    6    0    1
 -2        90        91      1466       527       124      1672      1671       686       685      4227
 -1      3544    6    0    1
 -2      1996       288       289      1027      2252       322      2253      4199      1267      1266
 -1      3545    6    0    1
 -2       222       223      1007      1470       256      1173      1172      1763      1762      4230
 -1      3546    6    0    1
 -2       225      1020       224      1490      1179      1178       258      1768      3723      1769
 -1      3547    6    0    1
 -2       526       157       158      1959       782       191       783      3718      2165      2164
 -1      3548    6    0    1
 -2        89        90      1519       509       123      1669      1668       683       682      3849
 -1      3549    6    0    1
 -2      2018       290       291      1033      2258       324      2259      3843      1273      1272
 -1      3550    6    0    1
 -2      2013       156       484       157      2162       779      3139      2161       190       780
 -1      3551    6    0    1
 -2       223       224       977      1523       257      1176      1175      1766      1765      3140
 -1      3552    6    0    1
 -2      1471        81        82       518      1644       115      1645      3749       659       658
 -1      3553    6    0    1
 -2      1991       153       152       483      2149       186      2150      4154       768       767
 -1      3554    6    0    1
 -2        85        86      1497       508       119      1657      1656       671       670      3022
 -1      3555    6    0    1
 -2       282       283      2008       979       316      2235      2234      1249      1248      3741
 -1      3556    6    0    1
 -2       149       148      1964       486       182      2138      2137       756       755      4242
 -1      3557    6    0    1
 -2      1512        94        95       497      1683       128      1684      3257       698       697
 -1      3558    6    0    1
 -2      1976       295       296      1022      2273       329      2274      4095      1288      1287
 -1      3559    6    0    1
 -2        77        76       522      1485       110       644       643      1630      1629      3158
 -1      3560    6    0    1
 -2      1482       214       990       215      1739      1148      3872      1738       248      1149
 -1      3561    6    0    1
 -2       496        81        80      1502       655       114       656      3175      1642      1641
 -1      3562    6    0    1
 -2        82        83      1521       536       116      1648      1647       662       661      3023
 -1      3563    6    0    1
 -2      2016       150       149       538      2140       183      2141      4162       759       758
 -1      3564    6    0    1
 -2       228       229       991      1483       262      1191      1190      1781      1780      2609
 -1      3565    6    0    1
 -2        75        74       537      1510       108       638       637      1624      1623      3897
 -1      3566    6    0    1
 -2        79        78       491      1476       112       650       649      1636      1635      3925
 -1      3567    6    0    1
 -2        74        73       492      1477       107       635       634      1621      1620      4249
 -1      3568    6    0    1
 -2      1962       151       150       507      2143       184      2144      2957       762       761
 -1      3569    6    0    1
 -2        83        84      1469       482       117      1651      1650       665       664      4052
 -1      3570    6    0    1
 -2       488        72        71      1473       628       105       629      3753      1615      1614
 -1      3571    6    0    1
 -2       487        70        69      1492       622       103       623      4063      1609      1608
 -1      3572    6    0    1
 -2       204       203      1472       980       237      1706      1705      1116      1115      3710
 -1      3573    6    0    1
 -2        84        85      1498       520       118      1654      1653       668       667      3531
 -1      3574    6    0    1
 -2       152       151      1992       519       185      2147      2146       765       764      4053
 -1      3575    6    0    1
 -2       521        73        72      1509       631       106       632      3161      1618      1617
 -1      3576    6    0    1
 -2        44       416      2061       412       423      4391      2069       440       442      4386
 -1      3577    6    0    1
 -2        23       344      1073       339       358      4384      1080       374       376      4383
 -1      3578    6    0    1
 -2       534        71        70      1514       625       104       626      3029      1612      1611
 -1      3579    6    0    1
 -2       490        76        75      1506       640       109       641      3768      1627      1626
 -1      3580    6    0    1
 -2      1010       281      1975       282      1246      2231      3174      1245       315      2232
 -1      3581    6    0    1
 -2      1967       135       134       489      2095       168      2096      4142       714       713
 -1      3582    6    0    1
 -2      1475       210       209       983      1723       243      1724      4243      1134      1133
 -1      3583    6    0    1
 -2       511        68        67      1474       616       101       617      3273      1603      1602
 -1      3584    6    0    1
 -2      1995       147       517       148      2135       752      3893      2134       181       753
 -1      3585    6    0    1
 -2       512        69        68      1517       619       102       620      3553      1606      1605
 -1      3586    6    0    1
 -2        78        77       523      1518       111       647       646      1633      1632      3801
 -1      3587    6    0    1
 -2        80        79       528      1503       113       653       652      1639      1638      4247
 -1      3588    6    0    1
 -2      1508       211       210      1015      1726       244      1727      3194      1137      1136
 -1      3589    6    0    1
 -2      1516       203       202      1004      1702       236      1703      3703      1113      1112
 -1      3590    6    0    1
 -2       269       268       982      1987       302      1207      1206      2193      2192      3602
 -1      3591    6    0    1
 -2      1486       207       206      1014      1714       240      1715      3157      1125      1124
 -1      3592    6    0    1
 -2      1558       209       208      1030      1720       242      1721      3876      1131      1130
 -1      3593    6    0    1
 -2      1530       206       205       981      1711       239      1712      4244      1122      1121
 -1      3594    6    0    1
 -2       207      1532       208       985      1718      1717       241      1127      3760      1128
 -1      3595    6    0    1
 -2      1493       202       201      1003      1699       235      1700      3550      1110      1109
 -1      3596    6    0    1
 -2      1531       205       204      1028      1708       238      1709      3994      1119      1118
 -1      3597    6    0    1
 -2       212       211      1487      1016       245      1730      1729      1140      1139      3776
 -1      3598    6    0    1
 -2       279      1066       280      1969      1240      1239       313      2225      3889      2226
 -1      3599    6    0    1
 -2       213       212      1555       984       246      1733      1732      1143      1142      2565
 -1      3600    6    0    1
 -2       407        60        59      1561       457        63       458      3218      1593      1592
 -1      3601    6    0    1
 -2       544        10        11       334       599        14       600      3153       364       363
 -1      3602    6    0    1
 -2       279       278      1038      2001       312      1237      1236      2223      2222      3796
 -1      3603    6    0    1
 -2       997       281       280      2006      1242       314      1243      4248      2229      2228
 -1      3604    6    0    1
 -2       214       213      1534      1021       247      1736      1735      1146      1145      3785
 -1      3605    6    0    1
 -2       146       147       500      1979       180       750       749      2132      2131      3880
 -1      3606    6    0    1
 -2       144       145       545      2026       178       744       743      2126      2125      3765
 -1      3607    6    0    1
 -2      1478       200       199      1069      1693       233      1694      3283      1104      1103
 -1      3608    6    0    1
 -2      1986       137       136       543      2101       170      2102      3200       720       719
 -1      3609    6    0    1
 -2       271       270      1036      1965       304      1213      1212      2199      2198      3628
 -1      3610    6    0    1
 -2       267       266       986      1971       300      1201      1200      2187      2186      3537
 -1      3611    6    0    1
 -2       145       146       573      2052       179       747       746      2129      2128      4164
 -1      3612    6    0    1
 -2       230       231       988      1481       264      1197      1196      1787      1786      3291
 -1      3613    6    0    1
 -2        51        52      1068       411        55      1097      1096       448       447      3419
 -1      3614    6    0    1
 -2        66        65       576      1562        99       611       610      1597      1596      3791
 -1      3615    6    0    1
 -2      2055       133       132       493      2089       166      2090      3324       708       707
 -1      3616    6    0    1
 -2      2011       136       135       548      2098       169      2099      3057       717       716
 -1      3617    6    0    1
 -2       284       285      2023      1009       318      2241      2240      1255      1254      3619
 -1      3618    6    0    1
 -2       975       217       218      1528      1157       251      1158      3907      1748      1747
 -1      3619    6    0    1
 -2       218       219      1012      1529       252      1161      1160      1751      1750      4030
 -1      3620    6    0    1
 -2       286      2024       285       992      2244      2243       319      1257      3654      1258
 -1      3621    6    0    1
 -2      1974       297       298      1070      2279       331      2280      4396      1294      1293
 -1      3622    6    0    1
 -2      1563        96        97       495      1689       130      1690      3700       704       703
 -1      3623    6    0    1
 -2       270       269      1041      2010       303      1210      1209      2196      2195      3641
 -1      3624    6    0    1
 -2        25        24      1037       333        28      1093      1092       378       377      3345
 -1      3625    6    0    1
 -2      2054        46        45       406      2085        49      2086      3317       444       443
 -1      3626    6    0    1
 -2       163       164       577      2056       197       801       800      2183      2182      3351
 -1      3627    6    0    1
 -2       336        10         9       503       360        13       361      3295       597       596
 -1      3628    6    0    1
 -2      1489        58        59       409      1589        62      1590      3208       455       454
 -1      3629    6    0    1
 -2        38        37       575       413        41       604       603       434       433      3362
 -1      3630    6    0    1
 -2        32        31      1527       335        35      1586      1585       385       384      3584
 -1      3631    6    0    1
 -2       201       200      1494       987       234      1697      1696      1107      1106      3669
 -1      3632    6    0    1
 -2      1002       268       267      1988      1203       301      1204      3822      2190      2189
 -1      3633    6    0    1
 -2       230      1006       229      1496      1194      1193       263      1783      3586      1784
 -1      3634    6    0    1
 -2      1981        16        17       338      2075        20      2076      3353       368       367
 -1      3635    6    0    1
 -2       494        67        66      1526       613       100       614      3938      1600      1599
 -1      3636    6    0    1
 -2       296       297      1990       974       330      2277      2276      1291      1290      4402
 -1      3637    6    0    1
 -2      1468        95        96       514      1686       129      1687      3942       701       700
 -1      3638    6    0    1
 -2       134       133      2021       510       167      2093      2092       711       710      3677
 -1      3639    6    0    1
 -2       340        30        31      1488       381        34       382      3398      1583      1582
 -1      3640    6    0    1
 -2       162       163       481      1961       196       798       797      2180      2179      3658
 -1      3641    6    0    1
 -2        39        38       504       408        42       607       606       437       436      3636
 -1      3642    6    0    1
 -2      2027      1990      1974      2558      2364      2281      2365      3481      4399      4397
 -1      3643    6    0    1
 -2       341        18        17      2022       370        21       371      3446      2079      2078
 -1      3644    6    0    1
 -2       339        23        24      1000       374        27       375      3626      1090      1089
 -1      3645    6    0    1
 -2       412        44        45      1982       440        48       441      3597      2083      2082
 -1      3646    6    0    1
 -2        53        52       414      1001        56       451       450      1100      1099      3594
 -1      3647    6    0    1
 -2       417      1074         8      1567      4318      1086       431      4320      4277      1580
 -1      3648    6    0    1
 -2       418         6       581      1568       424       594      4283      4295      1576      4262
 -1      3649    6    0    1
 -2       344      1565         4      1073      4325      1573       357      4384      4269      1081
 -1      3650    6    0    1
 -2       579         1      2059       343       585      2063      4291      4315       348      4323
 -1      3651    6    0    1
 -2         5       416       582      2061       422      4357       590      2070      4391      4287
 -1      3652    6    0    1
 -2       345         2      1566       580       352      1571      4329      4327       587      4309
 -1      3653    6    0    1
 -2       346      1072         3      2058      4374      1077       354      4387      4296      2067
 -1      3654    6    0    1
 -2       419      2060         7      1075      4377      2072       428      4394      4301      1084
 -1      3655    6    0    1
 -2      1565         4        32       344      1573        36      1574      4325       357       359
 -1      3656    6    0    1
 -2        11         1       579       343        15       585       584       349       348      4315
 -1      3657    6    0    1
 -2       417         8        60      1567       431        64       432      4320      1580      1579
 -1      3658    6    0    1
 -2       416         5        44      2061       422        47       423      4391      2070      2069
 -1      3659    6    0    1
 -2        58         6       418      1568        61       424       426      1577      1576      4295
 -1      3660    6    0    1
 -2       416        39         5       582       421        43       422      4357       591       590
 -1      3661    6    0    1
 -2       344         4        23      1073       357        26       358      4384      1081      1080
 -1      3662    6    0    1
 -2         9         2       345       580        12       352       351       588       587      4327
 -1      3663    6    0    1
 -2       346         3        18      2058       354        22       355      4387      2067      2066
 -1      3664    6    0    1
 -2       419         7        53      1075       428        57       429      4394      1084      1083
 -1      3665    6    0    1
 -2      1566         2        65       580      1571        98      1572      4309       587       589
 -1      3666    6    0    1
 -2         5       582       164      2061       590       592       198      2070      4287      2071
 -1      3667    6    0    1
 -2      1072         3        25       346      1077        29      1078      4374       354       356
 -1      3668    6    0    1
 -2      2060         7        46       419      2072        50      2073      4377       428       427
 -1      3669    6    0    1
 -2      1565       199         4      1073      1575       232      1573      4269      1082      1081
 -1      3670    6    0    1
 -2      2059       132         1       579      2065       165      2063      4291       586       585
 -1      3671    6    0    1
 -2       581         6        97      1568       594       131       595      4262      1576      1578
 -1      3672    6    0    1
 -2      2060       298         7      1075      2074       332      2072      4301      1085      1084
 -1      3673    6    0    1
 -2       581        37         6       418       593        40       594      4283       425       424
 -1      3674    6    0    1
 -2      2058      1072         3       266      4296      1077      2067      2068      1079       299
 -1      3675    6    0    1
 -2      1567      1074         8       231      4277      1086      1580      1581      1088       265
 -1      3676    6    0    1
 -2      1566        30         2       345      1570        33      1571      4329       353       352
 -1      3677    6    0    1
 -2      1074         8        51       417      1086        54      1087      4318       431       430
 -1      3678    6    0    1
 -2         1        16      2059       343        19      2064      2063       348       350      4323
 -1      3679    6    0    1
 -2      2504      2493      1042       991      2612      4403      3459      2610      2607      1394
 -1      3680    6    0    1
 -2      2504      1042      2493      2453      3459      4403      2612      2615      3261      2613
 -1      3681    6    0    1
 -2      1047      1042      2493       991      1398      4403      3603      1397      1394      2607
 -1      3682    6    0    1
 -2      1047      2493      1042      2453      3603      4403      1398      3260      2613      3261
 -1      3683    6    0    1
 -2      2538      1992      2466      1962      2960      3461      3170      2961      2148      3463
 -1      3684    6    0    1
 -2      2538      2466      1992      2537      3170      3461      2960      3171      3167      3674
 -1      3685    6    0    1
 -2      2538       519      1992       507      3169      4053      2960      2959       766      2958
 -1      3686    6    0    1
 -2      2538      1992       519      2537      2960      4053      3169      3171      3674      3166
 -1      3687    6    0    1
 -2      2538       519       558      2466      3169       941      3980      3170      3168      3688
 -1      3688    6    0    1
 -2      2538       558       519       507      3980       941      3169      2959       940       766
 -1      3689    6    0    1
 -2      2539       535       560       485      2953       836      3981      2965       793       837
 -1      3690    6    0    1
 -2      2539       560       535      2467      3981       836      2953      3162      3690      3165
 -1      3691    6    0    1
 -2      2017      2539      2047      1973      2952      3982      2362      2175      2963      2361
 -1      3692    6    0    1
 -2      2047      2539      2017      2467      3982      2952      2362      3692      3162      3163
 -1      3693    6    0    1
 -2      2543      2011      2039      2468      3061      2421      3999      3214      3213      3694
 -1      3694    6    0    1
 -2      2543      2039      2011      1986      3999      2421      3061      3060      2420      2103
 -1      3695    6    0    1
 -2      2451       347      2470       337      2928      4007      2583      2936       405      3650
 -1      3696    6    0    1
 -2      2451      2470       347      2472      2583      4007      2928      2586      2587      3302
 -1      3697    6    0    1
 -2      2543       548       513       543      3059       956      3991      3201       721       955
 -1      3698    6    0    1
 -2      2543       513       548      2468      3991       956      3059      3214      3696      3270
 -1      3699    6    0    1
 -2      2539      2544      2509      2032      3330      3505      3983      3331      3332      4032
 -1      3700    6    0    1
 -2      2509      2544      2539      2453      3505      3330      3983      3504      3263      3192
 -1      3701    6    0    1
 -2      2513      1492       487      1517      3835      4063      3556      3555      1610      3554
 -1      3702    6    0    1
 -2      2513       487      1492      2512      3556      4063      3835      3372      3837      3834
 -1      3703    6    0    1
 -2      2507       520      1469      2506      3820      3530      3817      3440      3534      3532
 -1      3704    6    0    1
 -2      2507      1469       520       482      3817      3530      3820      3821      4052       669
 -1      3705    6    0    1
 -2      2022       338        17       341      3354       367      2078      3446       372       371
 -1      3706    6    0    1
 -2        17       338      2022      1981       367      3354      2078      2076      3353      2080
 -1      3707    6    0    1
 -2      1532      2545      1511      1558      3860      3984      1951      1722      3866      1952
 -1      3708    6    0    1
 -2      1511      2545      1532      2473      3984      3860      1951      3985      3861      3762
 -1      3709    6    0    1
 -2      2551       490       567       537      3862       861      3955      3868       642       862
 -1      3710    6    0    1
 -2      2551       567       490      2489      3955       861      3862      3864      3956      3759
 -1      3711    6    0    1
 -2       989      2546      1046      1033      3815      3183      1387      1274      3845      1386
 -1      3712    6    0    1
 -2      1046      2546       989      2478      3183      3815      1387      3900      3816      3812
 -1      3713    6    0    1
 -2      2548       515       561      2479      3809       949      3181      3810      3806      3902
 -1      3714    6    0    1
 -2      2548       561       515       509      3181       949      3809      3850       948       684
 -1      3715    6    0    1
 -2      2548      1491      1539      1519      3808      1917      3179      3848      1670      1918
 -1      3716    6    0    1
 -2      2548      1539      1491      2479      3179      1917      3808      3810      3904      3805
 -1      3717    6    0    1
 -2      2546      1963      2030      2018      3814      2310      3177      3846      2260      2311
 -1      3718    6    0    1
 -2      2546      2030      1963      2478      3177      2310      3814      3816      3901      3811
 -1      3719    6    0    1
 -2      2545       985      1058      1030      3859      1364      3944      3877      1132      1365
 -1      3720    6    0    1
 -2      2545      1058       985      2473      3944      1364      3859      3861      3945      3763
 -1      3721    6    0    1
 -2      2553       531       566       502      3824       923      3972      3857       736       924
 -1      3722    6    0    1
 -2      2553       566       531      2487      3972       923      3824      3826      3971      3746
 -1      3723    6    0    1
 -2      2553      2004      2045      2487      3825      2398      3963      3826      3748      3960
 -1      3724    6    0    1
 -2      2553      2045      2004      1980      3963      2398      3825      3858      2397      2118
 -1      3725    6    0    1
 -2      2557      1021      1054       990      3869      1391      3196      3875      1150      1392
 -1      3726    6    0    1
 -2      2557      1054      1021      2483      3196      1391      3869      3871      3928      3783
 -1      3727    6    0    1
 -2      2552      1018      1059       999      3827      1434      3954      3853      1232      1435
 -1      3728    6    0    1
 -2      2552      1059      1018      2486      3954      1434      3827      3829      3953      3738
 -1      3729    6    0    1
 -2      2552      1968      2044      2486      3828      2336      3965      3829      3737      3966
 -1      3730    6    0    1
 -2      2552      2044      1968      2014      3965      2336      3828      3854      2335      2218
 -1      3731    6    0    1
 -2      2556      1979      2036      2488      3882      2391      3188      3883      3879      3922
 -1      3732    6    0    1
 -2      2556      2036      1979      1995      3188      2391      3882      3896      2390      2136
 -1      3733    6    0    1
 -2      2556       500       563       517      3881       911      3199      3895       754       912
 -1      3734    6    0    1
 -2      2556       563       500      2488      3199       911      3881      3883      3933      3878
 -1      3735    6    0    1
 -2      1534      2557      1556      1482      3870      3186      1880      1740      3874      1879
 -1      3736    6    0    1
 -2      1556      2557      1534      2483      3186      3870      1880      3918      3871      3786
 -1      3737    6    0    1
 -2      2551      1506      1535      2489      3863      1949      3978      3864      3769      3975
 -1      3738    6    0    1
 -2      2551      1535      1506      1510      3978      1949      3863      3898      1948      1628
 -1      3739    6    0    1
 -2      2502       975      1529      2501      4070      3906      4022      3501      3909      3910
 -1      3740    6    0    1
 -2      2502      1529       975      1012      4022      3906      4070      4031      4030      1162
 -3
    1PSTEP                         1           1           1          
  100CL  101 1.000000000        4403                     0    1           1
 -4  DISP        4    1
 -5  D1          1    2    1    0
 -5  D2          1    2    2    0
 -5  D3          1    2    3    0
 -5  ALL         1    2    0    0    1ALL
 -1         1 0.00000E+00 0.00000E+00 0.00000E+00
 -1         2 0.00000E+00 0.00000E+00 0.00000E+00
 -1         3 0.00000E+00 0.00000E+00 0.00000E+00
 -1         4 0.00000E+00 0.00000E+00 0.00000E+00
 -1         5-4.62741E+00 3.43254E+01-9.96780E-04
 -1         6-4.62739E+00 3.43253E+01 9.36587E-04
 -1         7-9.55073E+00 3.30279E+01-4.99787E-04
 -1         8-9.55075E+00 3.30278E+01 3.91167E-04
 -1         9 0.00000E+00 0.00000E+00 0.00000E+00
 -1        10 0.00000E+00 0.00000E+00 0.00000E+00
 -1        11 0.00000E+00 0.00000E+00 0.00000E+00
 -1        12 0.00000E+00 0.00000E+00 0.00000E+00
 -1        13 0.00000E+00 0.00000E+00 0.00000E+00
 -1        14 0.00000E+00 0.00000E+00 0.00000E+00
 -1        15 0.00000E+00 0.00000E+00 0.00000E+00
 -1        16 0.00000E+00 0.00000E+00 0.00000E+00
 -1        17 0.00000E+00 0.00000E+00 0.00000E+00
 -1        18 0.00000E+00 0.00000E+00 0.00000E+00
 -1        19 0.00000E+00 0.00000E+00 0.00000E+00
 -1        20 0.00000E+00 0.00000E+00 0.00000E+00
 -1        21 0.00000E+00 0.00000E+00 0.00000E+00
 -1        22 0.00000E+00 0.00000E+00 0.00000E+00
 -1        23 0.00000E+00 0.00000E+00 0.00000E+00
 -1        24 0.00000E+00 0.00000E+00 0.00000E+00
 -1        25 0.00000E+00 0.00000E+00 0.00000E+00
 -1        26 0.00000E+00 0.00000E+00 0.00000E+00
 -1        27 0.00000E+00 0.00000E+00 0.00000E+00
 -1        28 0.00000E+00 0.00000E+00 0.00000E+00
 -1        29 0.00000E+00 0.00000E+00 0.00000E+00
 -1        30 0.00000E+00 0.00000E+00 0.00000E+00
 -1        31 0.00000E+00 0.00000E+00 0.00000E+00
 -1        32 0.00000E+00 0.00000E+00 0.00000E+00
 -1        33 0.00000E+00 0.00000E+00 0.00000E+00
 -1        34 0.00000E+00 0.00000E+00 0.00000E+00
 -1        35 0.00000E+00 0.00000E+00 0.00000E+00
 -1        36 0.00000E+00 0.00000E+00 0.00000E+00
 -1        37-4.62684E+00 3.43264E+01 6.58585E-04
 -1        38-4.62678E+00 3.43266E+01 6.94632E-06
 -1        39-4.62683E+00 3.43265E+01-6.69313E-04
 -1        40-4.62692E+00 3.43261E+01 8.17133E-04
 -1        41-4.62678E+00 3.43266E+01 3.40778E-04
 -1        42-4.62680E+00 3.43266E+01-3.76324E-04
 -1        43-4.62700E+00 3.43262E+01-8.81922E-04
 -1        44-5.85981E+00 3.39976E+01-1.48911E-04
 -1        45-7.08741E+00 3.36736E+01-7.47609E-04
 -1        46-8.31620E+00 3.33519E+01-1.29648E-03
 -1        47-5.24476E+00 3.41610E+01-3.75124E-04
 -1        48-6.47376E+00 3.38352E+01-3.61619E-04
 -1        49-7.70139E+00 3.35127E+01-1.10372E-03
 -1        50-8.93247E+00 3.31906E+01-1.10873E-03
 -1        51-9.55194E+00 3.30279E+01-3.77425E-05
 -1        52-9.55215E+00 3.30280E+01-9.68784E-05
 -1        53-9.55197E+00 3.30279E+01-1.14682E-04
 -1        54-9.55166E+00 3.30278E+01 1.55532E-04
 -1        55-9.55212E+00 3.30279E+01-7.77153E-05
 -1        56-9.55214E+00 3.30280E+01-5.96718E-05
 -1        57-9.55164E+00 3.30279E+01-2.56682E-04
 -1        58-5.85978E+00 3.39976E+01 1.45200E-04
 -1        59-7.08740E+00 3.36736E+01 6.64230E-04
 -1        60-8.31620E+00 3.33518E+01 1.18904E-03
 -1        61-5.24472E+00 3.41610E+01 3.42347E-04
 -1        62-6.47374E+00 3.38352E+01 3.01215E-04
 -1        63-7.70138E+00 3.35127E+01 1.01739E-03
 -1        64-8.93248E+00 3.31906E+01 9.85586E-04
 -1        65 1.46952E-01 6.08874E-02 6.07939E-02
 -1        66 2.83226E-01 1.98349E-01 7.11799E-02
 -1        67 4.14014E-01 4.28262E-01 7.14094E-02
 -1        68 5.33798E-01 7.46098E-01 6.93648E-02
 -1        69 6.39722E-01 1.14723E+00 6.69946E-02
 -1        70 7.29192E-01 1.62819E+00 6.43943E-02
 -1        71 8.01135E-01 2.18495E+00 6.20996E-02
 -1        72 8.53937E-01 2.81429E+00 5.96218E-02
 -1        73 8.86578E-01 3.51247E+00 5.72750E-02
 -1        74 8.98389E-01 4.27623E+00 5.48827E-02
 -1        75 8.88672E-01 5.10211E+00 5.24729E-02
 -1        76 8.56938E-01 5.98673E+00 5.00780E-02
 -1        77 8.02946E-01 6.92664E+00 4.77848E-02
 -1        78 7.26775E-01 7.91885E+00 4.54564E-02
 -1        79 6.28178E-01 8.96016E+00 4.30718E-02
 -1        80 5.07530E-01 1.00474E+01 4.07022E-02
 -1        81 3.65287E-01 1.11774E+01 3.84969E-02
 -1        82 2.01674E-01 1.23475E+01 3.61553E-02
 -1        83 1.72827E-02 1.35545E+01 3.39507E-02
 -1        84-1.87041E-01 1.47959E+01 3.16549E-02
 -1        85-4.10948E-01 1.60687E+01 2.93139E-02
 -1        86-6.53102E-01 1.73702E+01 2.71612E-02
 -1        87-9.13041E-01 1.86979E+01 2.49322E-02
 -1        88-1.18959E+00 2.00492E+01 2.26453E-02
 -1        89-1.48175E+00 2.14215E+01 2.04647E-02
 -1        90-1.78852E+00 2.28123E+01 1.82278E-02
 -1        91-2.10874E+00 2.42192E+01 1.60150E-02
 -1        92-2.44124E+00 2.56398E+01 1.38484E-02
 -1        93-2.78485E+00 2.70720E+01 1.16328E-02
 -1        94-3.13850E+00 2.85130E+01 9.38911E-03
 -1        95-3.50069E+00 2.99610E+01 7.29658E-03
 -1        96-3.87040E+00 3.14134E+01 5.12906E-03
 -1        97-4.24618E+00 3.28682E+01 3.15801E-03
 -1        98 7.86864E-02 2.88226E-02 4.50299E-02
 -1        99 2.15415E-01 1.18154E-01 6.82773E-02
 -1       100 3.49736E-01 3.02060E-01 7.18479E-02
 -1       101 4.75490E-01 5.76555E-01 7.05096E-02
 -1       102 5.88649E-01 9.36476E-01 6.82135E-02
 -1       103 6.86569E-01 1.37801E+00 6.57608E-02
 -1       104 7.67472E-01 1.89728E+00 6.32704E-02
 -1       105 8.29963E-01 2.49075E+00 6.08732E-02
 -1       106 8.72824E-01 3.15499E+00 5.84456E-02
 -1       107 8.95154E-01 3.88636E+00 5.60936E-02
 -1       108 8.96227E-01 4.68161E+00 5.36857E-02
 -1       109 8.75553E-01 5.53727E+00 5.12911E-02
 -1       110 8.32730E-01 6.44996E+00 4.89246E-02
 -1       111 7.67652E-01 7.41642E+00 4.66068E-02
 -1       112 6.80213E-01 8.43357E+00 4.42820E-02
 -1       113 5.70603E-01 9.49821E+00 4.19245E-02
 -1       114 4.39096E-01 1.06072E+01 3.96074E-02
 -1       115 2.86090E-01 1.17576E+01 3.73287E-02
 -1       116 1.12034E-01 1.29466E+01 3.50441E-02
 -1       117-8.24331E-02 1.41711E+01 3.27942E-02
 -1       118-2.96655E-01 1.54285E+01 3.05106E-02
 -1       119-5.29762E-01 1.67160E+01 2.82515E-02
 -1       120-7.80949E-01 1.80310E+01 2.60379E-02
 -1       121-1.04931E+00 1.93708E+01 2.37910E-02
 -1       122-1.33379E+00 2.07328E+01 2.15543E-02
 -1       123-1.63340E+00 2.21147E+01 1.93525E-02
 -1       124-1.94702E+00 2.35138E+01 1.71337E-02
 -1       125-2.27352E+00 2.49279E+01 1.49323E-02
 -1       126-2.61173E+00 2.63546E+01 1.27251E-02
 -1       127-2.96052E+00 2.77915E+01 1.05269E-02
 -1       128-3.31859E+00 2.92363E+01 8.34417E-03
 -1       129-3.68472E+00 3.06867E+01 6.20201E-03
 -1       130-4.05763E+00 3.21406E+01 4.13418E-03
 -1       131-4.43590E+00 3.35961E+01 2.15710E-03
 -1       132 1.46935E-01 6.09107E-02-6.07677E-02
 -1       133 2.83213E-01 1.98356E-01-7.11713E-02
 -1       134 4.14012E-01 4.28353E-01-7.13583E-02
 -1       135 5.33815E-01 7.46142E-01-6.92969E-02
 -1       136 6.39690E-01 1.14732E+00-6.69767E-02
 -1       137 7.29251E-01 1.62813E+00-6.44721E-02
 -1       138 8.01163E-01 2.18498E+00-6.20982E-02
 -1       139 8.53854E-01 2.81430E+00-5.95678E-02
 -1       140 8.86658E-01 3.51242E+00-5.73034E-02
 -1       141 8.98439E-01 4.27627E+00-5.48904E-02
 -1       142 8.88655E-01 5.10211E+00-5.24683E-02
 -1       143 8.56875E-01 5.98671E+00-5.00456E-02
 -1       144 8.03027E-01 6.92663E+00-4.78115E-02
 -1       145 7.26702E-01 7.91888E+00-4.54731E-02
 -1       146 6.28187E-01 8.96015E+00-4.30877E-02
 -1       147 5.07636E-01 1.00473E+01-4.08410E-02
 -1       148 3.65239E-01 1.11774E+01-3.84818E-02
 -1       149 2.01629E-01 1.23475E+01-3.61983E-02
 -1       150 1.72946E-02 1.35546E+01-3.39418E-02
 -1       151-1.87113E-01 1.47960E+01-3.16413E-02
 -1       152-4.10893E-01 1.60687E+01-2.94235E-02
 -1       153-6.53156E-01 1.73702E+01-2.71796E-02
 -1       154-9.13049E-01 1.86979E+01-2.49497E-02
 -1       155-1.18956E+00 2.00492E+01-2.26865E-02
 -1       156-1.48182E+00 2.14215E+01-2.04310E-02
 -1       157-1.78847E+00 2.28122E+01-1.83213E-02
 -1       158-2.10870E+00 2.42192E+01-1.60625E-02
 -1       159-2.44126E+00 2.56399E+01-1.38636E-02
 -1       160-2.78485E+00 2.70720E+01-1.17020E-02
 -1       161-3.13845E+00 2.85130E+01-9.48799E-03
 -1       162-3.50068E+00 2.99610E+01-7.34339E-03
 -1       163-3.87040E+00 3.14134E+01-5.19863E-03
 -1       164-4.24622E+00 3.28682E+01-3.20102E-03
 -1       165 7.86908E-02 2.88389E-02-4.50157E-02
 -1       166 2.15399E-01 1.18169E-01-6.82719E-02
 -1       167 3.49732E-01 3.02078E-01-7.18473E-02
 -1       168 4.75507E-01 5.76542E-01-7.05021E-02
 -1       169 5.88653E-01 9.36527E-01-6.81573E-02
 -1       170 6.86583E-01 1.37797E+00-6.57590E-02
 -1       171 7.67502E-01 1.89726E+00-6.32994E-02
 -1       172 8.29953E-01 2.49078E+00-6.08762E-02
 -1       173 8.72820E-01 3.15497E+00-5.84579E-02
 -1       174 8.95177E-01 3.88635E+00-5.60965E-02
 -1       175 8.96250E-01 4.68162E+00-5.36971E-02
 -1       176 8.75535E-01 5.53727E+00-5.13022E-02
 -1       177 8.32736E-01 6.44995E+00-4.89493E-02
 -1       178 7.67633E-01 7.41642E+00-4.66423E-02
 -1       179 6.80205E-01 8.43357E+00-4.42880E-02
 -1       180 5.70652E-01 9.49818E+00-4.19743E-02
 -1       181 4.39095E-01 1.06072E+01-3.96758E-02
 -1       182 2.86061E-01 1.17577E+01-3.73536E-02
 -1       183 1.12015E-01 1.29466E+01-3.50875E-02
 -1       184-8.24732E-02 1.41712E+01-3.27794E-02
 -1       185-2.96634E-01 1.54285E+01-3.05498E-02
 -1       186-5.29766E-01 1.67160E+01-2.82965E-02
 -1       187-7.80961E-01 1.80310E+01-2.60661E-02
 -1       188-1.04931E+00 1.93708E+01-2.38102E-02
 -1       189-1.33380E+00 2.07329E+01-2.15892E-02
 -1       190-1.63339E+00 2.21147E+01-1.93873E-02
 -1       191-1.94701E+00 2.35138E+01-1.71947E-02
 -1       192-2.27351E+00 2.49280E+01-1.49727E-02
 -1       193-2.61174E+00 2.63546E+01-1.27617E-02
 -1       194-2.96050E+00 2.77915E+01-1.06073E-02
 -1       195-3.31856E+00 2.92363E+01-8.40737E-03
 -1       196-3.68474E+00 3.06868E+01-6.25894E-03
 -1       197-4.05766E+00 3.21406E+01-4.19807E-03
 -1       198-4.43592E+00 3.35961E+01-2.19764E-03
 -1       199-1.54629E-01 5.10721E-02-6.42653E-02
 -1       200-3.02972E-01 1.75063E-01-7.34288E-02
 -1       201-4.56319E-01 3.84636E-01-7.26238E-02
 -1       202-6.12847E-01 6.74857E-01-7.01323E-02
 -1       203-7.73518E-01 1.04199E+00-6.75251E-02
 -1       204-9.39745E-01 1.48317E+00-6.49117E-02
 -1       205-1.11297E+00 1.99562E+00-6.23516E-02
 -1       206-1.29448E+00 2.57652E+00-5.97929E-02
 -1       207-1.48555E+00 3.22304E+00-5.73235E-02
 -1       208-1.68690E+00 3.93248E+00-5.47760E-02
 -1       209-1.89923E+00 4.70196E+00-5.22730E-02
 -1       210-2.12319E+00 5.52884E+00-4.97802E-02
 -1       211-2.35926E+00 6.41016E+00-4.74077E-02
 -1       212-2.60760E+00 7.34346E+00-4.49135E-02
 -1       213-2.86829E+00 8.32593E+00-4.25427E-02
 -1       214-3.14142E+00 9.35501E+00-4.01132E-02
 -1       215-3.42668E+00 1.04279E+01-3.77190E-02
 -1       216-3.72393E+00 1.15422E+01-3.53601E-02
 -1       217-4.03284E+00 1.26953E+01-3.30213E-02
 -1       218-4.35283E+00 1.38847E+01-3.06796E-02
 -1       219-4.68329E+00 1.51078E+01-2.83788E-02
 -1       220-5.02363E+00 1.63625E+01-2.60671E-02
 -1       221-5.37314E+00 1.76462E+01-2.37965E-02
 -1       222-5.73100E+00 1.89565E+01-2.15136E-02
 -1       223-6.09626E+00 2.02913E+01-1.92127E-02
 -1       224-6.46810E+00 2.16479E+01-1.70484E-02
 -1       225-6.84543E+00 2.30245E+01-1.47692E-02
 -1       226-7.22723E+00 2.44185E+01-1.25720E-02
 -1       227-7.61239E+00 2.58278E+01-1.03639E-02
 -1       228-7.99986E+00 2.72502E+01-8.10827E-03
 -1       229-8.38843E+00 2.86835E+01-5.93933E-03
 -1       230-8.77689E+00 3.01254E+01-3.80695E-03
 -1       231-9.16419E+00 3.15737E+01-1.82462E-03
 -1       232-8.38379E-02 2.45265E-02-4.79389E-02
 -1       233-2.28129E-01 1.02299E-01-7.11948E-02
 -1       234-3.79224E-01 2.69492E-01-7.34342E-02
 -1       235-5.34151E-01 5.19977E-01-7.14031E-02
 -1       236-6.92570E-01 8.49017E-01-6.88008E-02
 -1       237-8.55806E-01 1.25352E+00-6.62095E-02
 -1       238-1.02538E+00 1.73068E+00-6.36212E-02
 -1       239-1.20262E+00 2.27770E+00-6.10605E-02
 -1       240-1.38875E+00 2.89172E+00-5.85410E-02
 -1       241-1.58483E+00 3.57005E+00-5.60170E-02
 -1       242-1.79160E+00 4.30987E+00-5.35169E-02
 -1       243-2.00973E+00 5.10842E+00-5.10237E-02
 -1       244-2.23971E+00 5.96285E+00-4.85978E-02
 -1       245-2.48186E+00 6.87054E+00-4.61534E-02
 -1       246-2.73640E+00 7.82875E+00-4.37319E-02
 -1       247-3.00328E+00 8.83482E+00-4.13036E-02
 -1       248-3.28250E+00 9.88612E+00-3.89123E-02
 -1       249-3.57383E+00 1.09800E+01-3.65387E-02
 -1       250-3.87694E+00 1.21140E+01-3.41771E-02
 -1       251-4.19143E+00 1.32856E+01-3.18355E-02
 -1       252-4.51674E+00 1.44922E+01-2.95303E-02
 -1       253-4.85226E+00 1.57314E+01-2.72313E-02
 -1       254-5.19729E+00 1.70009E+01-2.49314E-02
 -1       255-5.55107E+00 1.82982E+01-2.26601E-02
 -1       256-5.91276E+00 1.96210E+01-2.03799E-02
 -1       257-6.28141E+00 2.09670E+01-1.81264E-02
 -1       258-6.65609E+00 2.23339E+01-1.59050E-02
 -1       259-7.03581E+00 2.37194E+01-1.36663E-02
 -1       260-7.41944E+00 2.51213E+01-1.14577E-02
 -1       261-7.80588E+00 2.65375E+01-9.23521E-03
 -1       262-8.19405E+00 2.79656E+01-7.01294E-03
 -1       263-8.58271E+00 2.94035E+01-4.86486E-03
 -1       264-8.97072E+00 3.08489E+01-2.80453E-03
 -1       265-9.35735E+00 3.22997E+01-8.31780E-04
 -1       266-1.54653E-01 5.09963E-02 6.42473E-02
 -1       267-3.02933E-01 1.75046E-01 7.34586E-02
 -1       268-4.56275E-01 3.84723E-01 7.25969E-02
 -1       269-6.12797E-01 6.74848E-01 7.01755E-02
 -1       270-7.73539E-01 1.04202E+00 6.75038E-02
 -1       271-9.39627E-01 1.48322E+00 6.48831E-02
 -1       272-1.11300E+00 1.99562E+00 6.23840E-02
 -1       273-1.29458E+00 2.57653E+00 5.97797E-02
 -1       274-1.48547E+00 3.22297E+00 5.73851E-02
 -1       275-1.68683E+00 3.93244E+00 5.47959E-02
 -1       276-1.89927E+00 4.70202E+00 5.22379E-02
 -1       277-2.12324E+00 5.52881E+00 4.97714E-02
 -1       278-2.35917E+00 6.41018E+00 4.74273E-02
 -1       279-2.60760E+00 7.34347E+00 4.49069E-02
 -1       280-2.86829E+00 8.32600E+00 4.24552E-02
 -1       281-3.14136E+00 9.35504E+00 4.00244E-02
 -1       282-3.42668E+00 1.04279E+01 3.77260E-02
 -1       283-3.72398E+00 1.15422E+01 3.52968E-02
 -1       284-4.03285E+00 1.26952E+01 3.29992E-02
 -1       285-4.35280E+00 1.38846E+01 3.06449E-02
 -1       286-4.68324E+00 1.51079E+01 2.83154E-02
 -1       287-5.02369E+00 1.63625E+01 2.60216E-02
 -1       288-5.37314E+00 1.76462E+01 2.37737E-02
 -1       289-5.73099E+00 1.89565E+01 2.14311E-02
 -1       290-6.09633E+00 2.02912E+01 1.92108E-02
 -1       291-6.46807E+00 2.16480E+01 1.69382E-02
 -1       292-6.84539E+00 2.30245E+01 1.46899E-02
 -1       293-7.22716E+00 2.44185E+01 1.24882E-02
 -1       294-7.61244E+00 2.58279E+01 1.02529E-02
 -1       295-7.99981E+00 2.72502E+01 8.03356E-03
 -1       296-8.38839E+00 2.86835E+01 5.86235E-03
 -1       297-8.77685E+00 3.01254E+01 3.71898E-03
 -1       298-9.16418E+00 3.15737E+01 1.71001E-03
 -1       299-8.37682E-02 2.44819E-02 4.80606E-02
 -1       300-2.28097E-01 1.02277E-01 7.12280E-02
 -1       301-3.79179E-01 2.69525E-01 7.34257E-02
 -1       302-5.34104E-01 5.19982E-01 7.14054E-02
 -1       303-6.92570E-01 8.49022E-01 6.87892E-02
 -1       304-8.55776E-01 1.25356E+00 6.61911E-02
 -1       305-1.02533E+00 1.73066E+00 6.36142E-02
 -1       306-1.20262E+00 2.27768E+00 6.10607E-02
 -1       307-1.38879E+00 2.89170E+00 5.85602E-02
 -1       308-1.58482E+00 3.57003E+00 5.60334E-02
 -1       309-1.79159E+00 4.30990E+00 5.34892E-02
 -1       310-2.00976E+00 5.10844E+00 5.10048E-02
 -1       311-2.23968E+00 5.96286E+00 4.85877E-02
 -1       312-2.48185E+00 6.87052E+00 4.61137E-02
 -1       313-2.73636E+00 7.82877E+00 4.36827E-02
 -1       314-3.00329E+00 8.83487E+00 4.12464E-02
 -1       315-3.28251E+00 9.88612E+00 3.88824E-02
 -1       316-3.57382E+00 1.09800E+01 3.65011E-02
 -1       317-3.87696E+00 1.21140E+01 3.41410E-02
 -1       318-4.19144E+00 1.32855E+01 3.18102E-02
 -1       319-4.51674E+00 1.44922E+01 2.94939E-02
 -1       320-4.85225E+00 1.57314E+01 2.71543E-02
 -1       321-5.19730E+00 1.70009E+01 2.48817E-02
 -1       322-5.55106E+00 1.82982E+01 2.25959E-02
 -1       323-5.91276E+00 1.96210E+01 2.03164E-02
 -1       324-6.28141E+00 2.09670E+01 1.80770E-02
 -1       325-6.65610E+00 2.23339E+01 1.58228E-02
 -1       326-7.03579E+00 2.37195E+01 1.35832E-02
 -1       327-7.41942E+00 2.51214E+01 1.13489E-02
 -1       328-7.80588E+00 2.65376E+01 9.14509E-03
 -1       329-8.19403E+00 2.79657E+01 6.95270E-03
 -1       330-8.58270E+00 2.94035E+01 4.77740E-03
 -1       331-8.97070E+00 3.08489E+01 2.69682E-03
 -1       332-9.35734E+00 3.22997E+01 7.07648E-04
 -1       333 0.00000E+00 0.00000E+00 0.00000E+00
 -1       334 0.00000E+00 0.00000E+00 0.00000E+00
 -1       335 0.00000E+00 0.00000E+00 0.00000E+00
 -1       336 0.00000E+00 0.00000E+00 0.00000E+00
 -1       337 0.00000E+00 0.00000E+00 0.00000E+00
 -1       338 0.00000E+00 0.00000E+00 0.00000E+00
 -1       339 0.00000E+00 0.00000E+00 0.00000E+00
 -1       340 0.00000E+00 0.00000E+00 0.00000E+00
 -1       341 0.00000E+00 0.00000E+00 0.00000E+00
 -1       342 0.00000E+00 0.00000E+00 0.00000E+00
 -1       343 0.00000E+00 0.00000E+00 0.00000E+00
 -1       344 0.00000E+00 0.00000E+00 0.00000E+00
 -1       345 0.00000E+00 0.00000E+00 0.00000E+00
 -1       346 0.00000E+00 0.00000E+00 0.00000E+00
 -1       347 0.00000E+00 0.00000E+00 0.00000E+00
 -1       348 0.00000E+00 0.00000E+00 0.00000E+00
 -1       349 0.00000E+00 0.00000E+00 0.00000E+00
 -1       350 0.00000E+00 0.00000E+00 0.00000E+00
 -1       351 0.00000E+00 0.00000E+00 0.00000E+00
 -1       352 0.00000E+00 0.00000E+00 0.00000E+00
 -1       353 0.00000E+00 0.00000E+00 0.00000E+00
 -1       354 0.00000E+00 0.00000E+00 0.00000E+00
 -1       355 0.00000E+00 0.00000E+00 0.00000E+00
 -1       356 0.00000E+00 0.00000E+00 0.00000E+00
 -1       357 0.00000E+00 0.00000E+00 0.00000E+00
 -1       358 0.00000E+00 0.00000E+00 0.00000E+00
 -1       359 0.00000E+00 0.00000E+00 0.00000E+00
 -1       360 0.00000E+00 0.00000E+00 0.00000E+00
 -1       361 0.00000E+00 0.00000E+00 0.00000E+00
 -1       362 0.00000E+00 0.00000E+00 0.00000E+00
 -1       363 0.00000E+00 0.00000E+00 0.00000E+00
 -1       364 0.00000E+00 0.00000E+00 0.00000E+00
 -1       365 0.00000E+00 0.00000E+00 0.00000E+00
 -1       366 0.00000E+00 0.00000E+00 0.00000E+00
 -1       367 0.00000E+00 0.00000E+00 0.00000E+00
 -1       368 0.00000E+00 0.00000E+00 0.00000E+00
 -1       369 0.00000E+00 0.00000E+00 0.00000E+00
 -1       370 0.00000E+00 0.00000E+00 0.00000E+00
 -1       371 0.00000E+00 0.00000E+00 0.00000E+00
 -1       372 0.00000E+00 0.00000E+00 0.00000E+00
 -1       373 0.00000E+00 0.00000E+00 0.00000E+00
 -1       374 0.00000E+00 0.00000E+00 0.00000E+00
 -1       375 0.00000E+00 0.00000E+00 0.00000E+00
 -1       376 0.00000E+00 0.00000E+00 0.00000E+00
 -1       377 0.00000E+00 0.00000E+00 0.00000E+00
 -1       378 0.00000E+00 0.00000E+00 0.00000E+00
 -1       379 0.00000E+00 0.00000E+00 0.00000E+00
 -1       380 0.00000E+00 0.00000E+00 0.00000E+00
 -1       381 0.00000E+00 0.00000E+00 0.00000E+00
 -1       382 0.00000E+00 0.00000E+00 0.00000E+00
 -1       383 0.00000E+00 0.00000E+00 0.00000E+00
 -1       384 0.00000E+00 0.00000E+00 0.00000E+00
 -1       385 0.00000E+00 0.00000E+00 0.00000E+00
 -1       386 0.00000E+00 0.00000E+00 0.00000E+00
 -1       387 0.00000E+00 0.00000E+00 0.00000E+00
 -1       388 0.00000E+00 0.00000E+00 0.00000E+00
 -1       389 0.00000E+00 0.00000E+00 0.00000E+00
 -1       390 0.00000E+00 0.00000E+00 0.00000E+00
 -1       391 0.00000E+00 0.00000E+00 0.00000E+00
 -1       392 0.00000E+00 0.00000E+00 0.00000E+00
 -1       393 0.00000E+00 0.00000E+00 0.00000E+00
 -1       394 0.00000E+00 0.00000E+00 0.00000E+00
 -1       395 0.00000E+00 0.00000E+00 0.00000E+00
 -1       396 0.00000E+00 0.00000E+00 0.00000E+00
 -1       397 0.00000E+00 0.00000E+00 0.00000E+00
 -1       398 0.00000E+00 0.00000E+00 0.00000E+00
 -1       399 0.00000E+00 0.00000E+00 0.00000E+00
 -1       400 0.00000E+00 0.00000E+00 0.00000E+00
 -1       401 0.00000E+00 0.00000E+00 0.00000E+00
 -1       402 0.00000E+00 0.00000E+00 0.00000E+00
 -1       403 0.00000E+00 0.00000E+00 0.00000E+00
 -1       404 0.00000E+00 0.00000E+00 0.00000E+00
 -1       405 0.00000E+00 0.00000E+00 0.00000E+00
 -1       406-7.66311E+00 3.35231E+01-5.06886E-04
 -1       407-7.65442E+00 3.35253E+01 4.39562E-04
 -1       408-5.60202E+00 3.40672E+01-2.61555E-04
 -1       409-6.47591E+00 3.38353E+01 2.75197E-04
 -1       410-7.07282E+00 3.36785E+01 9.74513E-05
 -1       411-8.41379E+00 3.33270E+01 8.70154E-05
 -1       412-6.39510E+00 3.38566E+01-3.13911E-04
 -1       413-5.72920E+00 3.40334E+01 1.32327E-04
 -1       414-8.65514E+00 3.32638E+01-2.03178E-04
 -1       415-7.69077E+00 3.35163E+01-1.78076E-04
 -1       416-5.52990E+00 3.40859E+01-4.10140E-04
 -1       417-8.64717E+00 3.32656E+01 4.81109E-04
 -1       418-5.52998E+00 3.40859E+01 3.32396E-04
 -1       419-8.65460E+00 3.32636E+01-6.08289E-04
 -1       420-6.62778E+00 3.37957E+01-1.39079E-04
 -1       421-5.07895E+00 3.42061E+01-5.67196E-04
 -1       422-5.07931E+00 3.42056E+01-5.32699E-04
 -1       423-5.69478E+00 3.40417E+01-3.09159E-04
 -1       424-5.07927E+00 3.42055E+01 4.80740E-04
 -1       425-5.07893E+00 3.42060E+01 5.26498E-04
 -1       426-5.69483E+00 3.40417E+01 2.68096E-04
 -1       427-8.48539E+00 3.33077E+01-9.26650E-04
 -1       428-9.10229E+00 3.31462E+01-7.06761E-04
 -1       429-9.10289E+00 3.31462E+01-3.21096E-04
 -1       430-9.09917E+00 3.31471E+01 1.87132E-04
 -1       431-9.09861E+00 3.31472E+01 5.88204E-04
 -1       432-8.48168E+00 3.33086E+01 8.06350E-04
 -1       433-5.17875E+00 3.41797E+01 3.30827E-04
 -1       434-5.17871E+00 3.41798E+01 1.01254E-04
 -1       435-5.62958E+00 3.40597E+01 2.51519E-04
 -1       436-5.11498E+00 3.41968E+01-1.87141E-04
 -1       437-5.11508E+00 3.41966E+01-4.30233E-04
 -1       438-5.66560E+00 3.40504E+01-6.92250E-05
 -1       439-5.56594E+00 3.40766E+01-3.45908E-04
 -1       440-6.12734E+00 3.39270E+01-2.60164E-04
 -1       441-6.74127E+00 3.37648E+01-4.71253E-04
 -1       442-5.96272E+00 3.39710E+01-3.01288E-04
 -1       443-7.37505E+00 3.35982E+01-6.75133E-04
 -1       444-7.98968E+00 3.34373E+01-8.68138E-04
 -1       445-7.02905E+00 3.36895E+01-4.24359E-04
 -1       446-8.15856E+00 3.33934E+01-6.12008E-04
 -1       447-8.98235E+00 3.31780E+01-3.10656E-05
 -1       448-8.98226E+00 3.31780E+01 8.82453E-05
 -1       449-8.53052E+00 3.32963E+01 2.65292E-04
 -1       450-9.10310E+00 3.31463E+01-1.94188E-04
 -1       451-9.10331E+00 3.31463E+01-9.37448E-05
 -1       452-8.53453E+00 3.32954E+01-6.35794E-05
 -1       453-8.65492E+00 3.32637E+01-3.83980E-04
 -1       454-6.78166E+00 3.37542E+01 4.05222E-04
 -1       455-6.16772E+00 3.39164E+01 2.39777E-04
 -1       456-6.00314E+00 3.39604E+01 2.47566E-04
 -1       457-7.98532E+00 3.34384E+01 7.94796E-04
 -1       458-7.37070E+00 3.35994E+01 6.03077E-04
 -1       459-7.06512E+00 3.36800E+01 3.60508E-04
 -1       460-8.15050E+00 3.33955E+01 5.26250E-04
 -1       461-6.51139E+00 3.38262E+01-2.57673E-04
 -1       462-7.14543E+00 3.36592E+01-3.33002E-04
 -1       463-7.67700E+00 3.35197E+01-3.29042E-04
 -1       464-8.17267E+00 3.33901E+01-2.01727E-04
 -1       465-8.15885E+00 3.33935E+01-3.74873E-04
 -1       466-7.15915E+00 3.36559E+01-1.76997E-04
 -1       467-7.36362E+00 3.36019E+01 2.69051E-04
 -1       468-6.77432E+00 3.37568E+01 2.06993E-04
 -1       469-8.03402E+00 3.34262E+01 2.71890E-04
 -1       470-7.74288E+00 3.35026E+01 1.21958E-04
 -1       471-5.99868E+00 3.39618E+01-2.81540E-04
 -1       472-6.11505E+00 3.39312E+01-1.92147E-04
 -1       473-6.17863E+00 3.39145E+01-3.05884E-05
 -1       474-6.40113E+00 3.38555E+01 9.12838E-05
 -1       475-6.10262E+00 3.39343E+01 2.03822E-04
 -1       476-8.05218E+00 3.34217E+01-2.41141E-05
 -1       477-7.38176E+00 3.35974E+01-4.37581E-05
 -1       478-6.85032E+00 3.37371E+01-1.52014E-05
 -1       479-1.05253E+00 1.93791E+01 1.16164E-02
 -1       480-2.27539E+00 2.49331E+01 7.30523E-03
 -1       481-3.68127E+00 3.06740E+01-3.14484E-03
 -1       482-8.67597E-02 1.41827E+01 1.59972E-02
 -1       483-5.33593E-01 1.67259E+01-1.38480E-02
 -1       484-1.63618E+00 2.21213E+01-9.49997E-03
 -1       485-2.96162E+00 2.77952E+01-5.21526E-03
 -1       486 2.81365E-01 1.17711E+01-1.82277E-02
 -1       487 6.83398E-01 1.40270E+00 3.21170E-02
 -1       488 8.25912E-01 2.51390E+00 2.95677E-02
 -1       489 4.73152E-01 6.03803E-01-3.42314E-02
 -1       490 8.70581E-01 5.55635E+00 2.49762E-02
 -1       491 6.75682E-01 8.44500E+00 2.16125E-02
 -1       492 8.90661E-01 3.90747E+00 2.72742E-02
 -1       493 2.03484E-01 1.37305E-01-3.10440E-02
 -1       494 3.46862E-01 3.29664E-01 3.46533E-02
 -1       495-4.07516E+00 3.22102E+01 1.94940E-03
 -1       496 4.34100E-01 1.06214E+01 1.93435E-02
 -1       497-3.31940E+00 2.92391E+01 4.12288E-03
 -1       498 7.63919E-01 1.92148E+00-3.07830E-02
 -1       499 8.27521E-01 6.46796E+00-2.38525E-02
 -1       500 5.66081E-01 9.50970E+00-2.07949E-02
 -1       501 8.68281E-01 3.17707E+00-2.84356E-02
 -1       502 8.91469E-01 4.70170E+00-2.60939E-02
 -1       503 9.86363E-02 6.16028E-02 9.31537E-03
 -1       504-4.35726E+00 3.32978E+01-6.41630E-04
 -1       505-1.05254E+00 1.93791E+01-1.16549E-02
 -1       506-2.27541E+00 2.49331E+01-7.33682E-03
 -1       507-8.67810E-02 1.41828E+01-1.60150E-02
 -1       508-5.33792E-01 1.67258E+01 1.38104E-02
 -1       509-1.63601E+00 2.21214E+01 9.45374E-03
 -1       510 3.46363E-01 3.28634E-01-3.48741E-02
 -1       511 4.72417E-01 6.02287E-01 3.43403E-02
 -1       512 5.85750E-01 9.61564E-01 3.33841E-02
 -1       513 6.35395E-01 1.18005E+00-8.29325E-05
 -1       514-3.68659E+00 3.06950E+01 3.06305E-03
 -1       515-1.33674E+00 2.07403E+01 1.05530E-02
 -1       516-1.33676E+00 2.07404E+01-1.05716E-02
 -1       517 4.34338E-01 1.06211E+01-1.94748E-02
 -1       518 2.81332E-01 1.17710E+01 1.82089E-02
 -1       519-3.00849E-01 1.54393E+01-1.49352E-02
 -1       520-3.00710E-01 1.54394E+01 1.48930E-02
 -1       521 8.68275E-01 3.17711E+00 2.84094E-02
 -1       522 8.27510E-01 6.46801E+00 2.38154E-02
 -1       523 7.62744E-01 7.43267E+00 2.28452E-02
 -1       524 7.20781E-01 7.93051E+00-2.73073E-04
 -1       525 8.70671E-01 5.55640E+00-2.49624E-02
 -1       526-1.94925E+00 2.35198E+01-8.43079E-03
 -1       527-1.94924E+00 2.35198E+01 8.37497E-03
 -1       528 5.66364E-01 9.50762E+00 2.06366E-02
 -1       529-3.31931E+00 2.92392E+01-4.14866E-03
 -1       530-2.96162E+00 2.77952E+01 5.13853E-03
 -1       531 8.90611E-01 3.90742E+00-2.72648E-02
 -1       532 8.25971E-01 2.51397E+00-2.95482E-02
 -1       533-2.61316E+00 2.63590E+01 6.22647E-03
 -1       534 7.63714E-01 1.92138E+00 3.09044E-02
 -1       535-2.61325E+00 2.63590E+01-6.28056E-03
 -1       536 1.07273E-01 1.29590E+01 1.70870E-02
 -1       537 8.91507E-01 4.70172E+00 2.61245E-02
 -1       538 1.07465E-01 1.29591E+01-1.71133E-02
 -1       539-7.84519E-01 1.80400E+01 1.26990E-02
 -1       540-7.84500E-01 1.80401E+01-1.27437E-02
 -1       541 2.85519E-01 2.43213E-01 2.86034E-04
 -1       542 4.10565E-01 4.64093E-01 1.92617E-06
 -1       543 6.85110E-01 1.41195E+00-3.24665E-02
 -1       544 1.03464E-01 6.37454E-02-1.02500E-02
 -1       545 7.62810E-01 7.43164E+00-2.31733E-02
 -1       546 6.21842E-01 8.97654E+00-1.88284E-04
 -1       547-3.85104E+00 3.13387E+01-6.57847E-05
 -1       548 5.83832E-01 9.54403E-01-3.37573E-02
 -1       549-3.50071E+00 2.99610E+01-3.97608E-05
 -1       550 7.24443E-01 1.66055E+00 5.85470E-07
 -1       551-2.11170E+00 2.42264E+01-3.50669E-05
 -1       552-1.79192E+00 2.28205E+01 3.82046E-05
 -1       553-6.58181E-01 1.73827E+01-4.06945E-05
 -1       554-2.44371E+00 2.56460E+01-6.13165E-05
 -1       555 1.11585E-02 1.35702E+01-1.11244E-06
 -1       556-9.17735E-01 1.87093E+01 4.41506E-06
 -1       557-4.16446E-01 1.60821E+01-2.37114E-05
 -1       558-1.92865E-01 1.48105E+01-2.42702E-05
 -1       559-3.13994E+00 2.85173E+01-2.30096E-05
 -1       560-2.78678E+00 2.70772E+01-3.09102E-05
 -1       561-1.48566E+00 2.14307E+01-2.17107E-05
 -1       562 1.95423E-01 1.23643E+01 1.05130E-05
 -1       563 5.01172E-01 1.00643E+01-7.34721E-05
 -1       564 7.95995E-01 2.21599E+00-1.06924E-05
 -1       565 8.48268E-01 2.84387E+00 3.07656E-05
 -1       566 8.92066E-01 4.30320E+00-1.10389E-05
 -1       567 8.82074E-01 5.12771E+00-2.24796E-05
 -1       568 8.80605E-01 3.54079E+00 6.68484E-05
 -1       569 8.50219E-01 6.01096E+00 3.09021E-05
 -1       570-1.19389E+00 2.00595E+01-1.60300E-05
 -1       571 3.58768E-01 1.11955E+01-7.94145E-05
 -1       572 7.96222E-01 6.94969E+00 5.61294E-05
 -1       573 6.75624E-01 8.44628E+00-2.20557E-02
 -1       574 5.29465E-01 7.78589E-01 4.73926E-05
 -1       575-4.34573E+00 3.32539E+01 6.42398E-04
 -1       576 2.03862E-01 1.37786E-01 3.09766E-02
 -1       577-4.07334E+00 3.22033E+01-1.98735E-03
 -1       578 1.78159E-01 1.21548E-01-1.30284E-04
 -1       579 8.90965E-02 4.90000E-02-2.72858E-02
 -1       580 8.83270E-02 4.87278E-02 2.70354E-02
 -1       581-4.38317E+00 3.33963E+01 1.55530E-03
 -1       582-4.38501E+00 3.34037E+01-1.57449E-03
 -1       583-4.13995E+00 3.24607E+01-1.96492E-05
 -1       584 4.29009E-02 2.92204E-02-1.28589E-02
 -1       585 4.35517E-02 2.42998E-02-2.05742E-02
 -1       586 1.17460E-01 5.59399E-02-4.43259E-02
 -1       587 4.31689E-02 2.41861E-02 2.03488E-02
 -1       588 4.25592E-02 2.90738E-02 1.26699E-02
 -1       589 1.17059E-01 5.57992E-02 4.41910E-02
 -1       590-4.50566E+00 3.38643E+01-1.50562E-03
 -1       591-4.50557E+00 3.38648E+01-1.03440E-03
 -1       592-4.31554E+00 3.31361E+01-2.32426E-03
 -1       593-4.50459E+00 3.38611E+01 1.00015E-03
 -1       594-4.50468E+00 3.38606E+01 1.46495E-03
 -1       595-4.31458E+00 3.31323E+01 2.29545E-03
 -1       596 4.70631E-02 3.18802E-02 8.22653E-03
 -1       597 4.72535E-02 3.21137E-02 2.83471E-03
 -1       598 9.34014E-02 5.59282E-02 1.79527E-02
 -1       599 5.06170E-02 3.53294E-02-2.82689E-03
 -1       600 4.91332E-02 3.30194E-02-8.91312E-03
 -1       601 1.01116E-01 6.39023E-02-3.08959E-04
 -1       602 9.60435E-02 5.70651E-02-1.85997E-02
 -1       603-4.48584E+00 3.37899E+01 2.22792E-04
 -1       604-4.48583E+00 3.37897E+01 6.97931E-04
 -1       605-4.36443E+00 3.33252E+01 1.12533E-03
 -1       606-4.49158E+00 3.38118E+01-7.26499E-04
 -1       607-4.49162E+00 3.38119E+01-2.42424E-04
 -1       608-4.35151E+00 3.32759E+01-1.46028E-06
 -1       609-4.37110E+00 3.33508E+01-1.12709E-03
 -1       610 2.43767E-01 1.67936E-01 5.10972E-02
 -1       611 1.73737E-01 9.93311E-02 4.64295E-02
 -1       612 1.46179E-01 8.61519E-02 3.11952E-02
 -1       613 3.80791E-01 3.78784E-01 5.30927E-02
 -1       614 3.14859E-01 2.63618E-01 5.29434E-02
 -1       615 2.76516E-01 2.21624E-01 3.35711E-02
 -1       616 5.03405E-01 6.73839E-01 5.19223E-02
 -1       617 4.43545E-01 5.15253E-01 5.26862E-02
 -1       618 4.11078E-01 4.55206E-01 3.46631E-02
 -1       619 6.12991E-01 1.05407E+00 5.02250E-02
 -1       620 5.60144E-01 8.53731E-01 5.11583E-02
 -1       621 5.30910E-01 7.71462E-01 3.38873E-02
 -1       622 7.06564E-01 1.51513E+00 4.83210E-02
 -1       623 6.61932E-01 1.27500E+00 4.93172E-02
 -1       624 6.36481E-01 1.17213E+00 3.27497E-02
 -1       625 7.82730E-01 2.05293E+00 4.65398E-02
 -1       626 7.46844E-01 1.77475E+00 4.73825E-02
 -1       627 7.25768E-01 1.65254E+00 3.14504E-02
 -1       628 8.40223E-01 2.66386E+00 4.46381E-02
 -1       629 8.13882E-01 2.34946E+00 4.55941E-02
 -1       630 7.97134E-01 2.20866E+00 3.02329E-02
 -1       631 8.77726E-01 3.34456E+00 4.29296E-02
 -1       632 8.61542E-01 2.99571E+00 4.37555E-02
 -1       633 8.49520E-01 2.83691E+00 2.89429E-02
 -1       634 8.94807E-01 4.09166E+00 4.11662E-02
 -1       635 8.88968E-01 3.70996E+00 4.20633E-02
 -1       636 8.82088E-01 3.53409E+00 2.78472E-02
 -1       637 8.90386E-01 4.90171E+00 3.93598E-02
 -1       638 8.95280E-01 4.48902E+00 4.02982E-02
 -1       639 8.93704E-01 4.29689E+00 2.66876E-02
 -1       640 8.64084E-01 5.77135E+00 3.75932E-02
 -1       641 8.79992E-01 5.32928E+00 3.85010E-02
 -1       642 8.83689E-01 5.12168E+00 2.55162E-02
 -1       643 8.15551E-01 6.69716E+00 3.59077E-02
 -1       644 8.42630E-01 6.22742E+00 3.67193E-02
 -1       645 8.51748E-01 6.00525E+00 2.43540E-02
 -1       646 7.45079E-01 7.67562E+00 3.42485E-02
 -1       647 7.83174E-01 7.17969E+00 3.51268E-02
 -1       648 7.97922E-01 6.94382E+00 2.33439E-02
 -1       649 6.52249E-01 8.70240E+00 3.24465E-02
 -1       650 7.01517E-01 8.18206E+00 3.33656E-02
 -1       651 7.21846E-01 7.93279E+00 2.22665E-02
 -1       652 5.37284E-01 9.77732E+00 3.07849E-02
 -1       653 5.97569E-01 9.23396E+00 3.16761E-02
 -1       654 6.23740E-01 8.97052E+00 2.11225E-02
 -1       655 4.00051E-01 1.08993E+01 2.90158E-02
 -1       656 4.71114E-01 1.03345E+01 2.98276E-02
 -1       657 5.02957E-01 1.00591E+01 1.99605E-02
 -1       658 2.41845E-01 1.20591E+01 2.72741E-02
 -1       659 3.23586E-01 1.14743E+01 2.81804E-02
 -1       660 3.60307E-01 1.11912E+01 1.87755E-02
 -1       661 6.26128E-02 1.32567E+01 2.56508E-02
 -1       662 1.54824E-01 1.26534E+01 2.64352E-02
 -1       663 1.96820E-01 1.23604E+01 1.76062E-02
 -1       664-1.36581E-01 1.44892E+01 2.39346E-02
 -1       665-3.44557E-02 1.38687E+01 2.48157E-02
 -1       666 1.27854E-02 1.35666E+01 1.65599E-02
 -1       667-3.55528E-01 1.57540E+01 2.22178E-02
 -1       668-2.43622E-01 1.51178E+01 2.31262E-02
 -1       669-1.91387E-01 1.48070E+01 1.54369E-02
 -1       670-5.93081E-01 1.70480E+01 2.06157E-02
 -1       671-4.72088E-01 1.63974E+01 2.13843E-02
 -1       672-4.14943E-01 1.60790E+01 1.43213E-02
 -1       673-8.48474E-01 1.83689E+01 1.89444E-02
 -1       674-7.18574E-01 1.77053E+01 1.97900E-02
 -1       675-6.57030E-01 1.73797E+01 1.32892E-02
 -1       676-1.12075E+00 1.97141E+01 1.72553E-02
 -1       677-9.82551E-01 1.90386E+01 1.81305E-02
 -1       678-9.16506E-01 1.87066E+01 1.21666E-02
 -1       679-1.40891E+00 2.10809E+01 1.56244E-02
 -1       680-1.26293E+00 2.03949E+01 1.64485E-02
 -1       681-1.19273E+00 2.00570E+01 1.10754E-02
 -1       682-1.71195E+00 2.24668E+01 1.39666E-02
 -1       683-1.55866E+00 2.17716E+01 1.48234E-02
 -1       684-1.48466E+00 2.14286E+01 1.00025E-02
 -1       685-2.02870E+00 2.38695E+01 1.23234E-02
 -1       686-1.86866E+00 2.31662E+01 1.31592E-02
 -1       687-1.79096E+00 2.28185E+01 8.91405E-03
 -1       688-2.35802E+00 2.52865E+01 1.07080E-02
 -1       689-2.19186E+00 2.45763E+01 1.15167E-02
 -1       690-2.11081E+00 2.42247E+01 7.82527E-03
 -1       691-2.69869E+00 2.67155E+01 9.05005E-03
 -1       692-2.52701E+00 2.59996E+01 9.90520E-03
 -1       693-2.44295E+00 2.56446E+01 6.76939E-03
 -1       694-3.04976E+00 2.81541E+01 7.39678E-03
 -1       695-2.87304E+00 2.74338E+01 8.25990E-03
 -1       696-2.78627E+00 2.70760E+01 5.68649E-03
 -1       697-3.40972E+00 2.96001E+01 5.83025E-03
 -1       698-3.22874E+00 2.88763E+01 6.59968E-03
 -1       699-3.13942E+00 2.85163E+01 4.59846E-03
 -1       700-3.77820E+00 3.10542E+01 4.20911E-03
 -1       701-3.59346E+00 3.03282E+01 5.04973E-03
 -1       702-3.50213E+00 2.99665E+01 3.58923E-03
 -1       703-4.16041E+00 3.25393E+01 2.66860E-03
 -1       704-3.97255E+00 3.18120E+01 3.39884E-03
 -1       705-3.88012E+00 3.14522E+01 2.46540E-03
 -1       706-4.22874E+00 3.28031E+01 1.82570E-03
 -1       707 1.73542E-01 9.91114E-02-4.64442E-02
 -1       708 2.43564E-01 1.67673E-01-5.11293E-02
 -1       709 1.46368E-01 8.61452E-02-3.13164E-02
 -1       710 3.14597E-01 2.63132E-01-5.30389E-02
 -1       711 3.80517E-01 3.78222E-01-5.31955E-02
 -1       712 2.76074E-01 2.20919E-01-3.36747E-02
 -1       713 4.43848E-01 5.15939E-01-5.26334E-02
 -1       714 5.03772E-01 6.74697E-01-5.18367E-02
 -1       715 4.11272E-01 4.55289E-01-3.46966E-02
 -1       716 5.59152E-01 8.50328E-01-5.12926E-02
 -1       717 6.12084E-01 1.05034E+00-5.04024E-02
 -1       718 5.30198E-01 7.69168E-01-3.39864E-02
 -1       719 6.62809E-01 1.27938E+00-4.94782E-02
 -1       720 7.07415E-01 1.51989E+00-4.85249E-02
 -1       721 6.36579E-01 1.17260E+00-3.31156E-02
 -1       722 7.46950E-01 1.77478E+00-4.73789E-02
 -1       723 7.82810E-01 2.05300E+00-4.64787E-02
 -1       724 7.26630E-01 1.65760E+00-3.15847E-02
 -1       725 8.13913E-01 2.34950E+00-4.55924E-02
 -1       726 8.40190E-01 2.66391E+00-4.46392E-02
 -1       727 7.97224E-01 2.20876E+00-3.01668E-02
 -1       728 8.61456E-01 2.99569E+00-4.37557E-02
 -1       729 8.77816E-01 3.34456E+00-4.29402E-02
 -1       730 8.49642E-01 2.83693E+00-2.89565E-02
 -1       731 8.88964E-01 3.71001E+00-4.20742E-02
 -1       732 8.94832E-01 4.09166E+00-4.11428E-02
 -1       733 8.81958E-01 3.53408E+00-2.78840E-02
 -1       734 8.95287E-01 4.48905E+00-4.02842E-02
 -1       735 8.90360E-01 4.90172E+00-3.93678E-02
 -1       736 8.93635E-01 4.29691E+00-2.66814E-02
 -1       737 8.79994E-01 5.32929E+00-3.85132E-02
 -1       738 8.64071E-01 5.77138E+00-3.76012E-02
 -1       739 8.83781E-01 5.12168E+00-2.55204E-02
 -1       740 8.42550E-01 6.22739E+00-3.67302E-02
 -1       741 8.15642E-01 6.69717E+00-3.59285E-02
 -1       742 8.51868E-01 6.00527E+00-2.43751E-02
 -1       743 7.83231E-01 7.17920E+00-3.53167E-02
 -1       744 7.45079E-01 7.67505E+00-3.44303E-02
 -1       745 7.97854E-01 6.94329E+00-2.35560E-02
 -1       746 7.01479E-01 8.18261E+00-3.35872E-02
 -1       747 6.52237E-01 8.70299E+00-3.26693E-02
 -1       748 7.21929E-01 7.93289E+00-2.26219E-02
 -1       749 5.97442E-01 9.23499E+00-3.17627E-02
 -1       750 5.37218E-01 9.77835E+00-3.09304E-02
 -1       751 6.23553E-01 8.97223E+00-2.14139E-02
 -1       752 4.71267E-01 1.03343E+01-3.00029E-02
 -1       753 4.00103E-01 1.08991E+01-2.90877E-02
 -1       754 5.02825E-01 1.00600E+01-2.01709E-02
 -1       755 3.23596E-01 1.14743E+01-2.81801E-02
 -1       756 2.41800E-01 1.20592E+01-2.73192E-02
 -1       757 3.60483E-01 1.11911E+01-1.88557E-02
 -1       758 1.54823E-01 1.26534E+01-2.64934E-02
 -1       759 6.26980E-02 1.32567E+01-2.56526E-02
 -1       760 1.96965E-01 1.23604E+01-1.76585E-02
 -1       761-3.44787E-02 1.38688E+01-2.48143E-02
 -1       762-1.36626E-01 1.44893E+01-2.39249E-02
 -1       763 1.28250E-02 1.35666E+01-1.65649E-02
 -1       764-2.43678E-01 1.51177E+01-2.31155E-02
 -1       765-3.55550E-01 1.57539E+01-2.23001E-02
 -1       766-1.91484E-01 1.48070E+01-1.54340E-02
 -1       767-4.71983E-01 1.63974E+01-2.14714E-02
 -1       768-5.93074E-01 1.70480E+01-2.06333E-02
 -1       769-4.14909E-01 1.60790E+01-1.43755E-02
 -1       770-7.18590E-01 1.77053E+01-1.98185E-02
 -1       771-8.48464E-01 1.83690E+01-1.89753E-02
 -1       772-6.56907E-01 1.73798E+01-1.32999E-02
 -1       773-9.82562E-01 1.90387E+01-1.81561E-02
 -1       774-1.12073E+00 1.97141E+01-1.72785E-02
 -1       775-9.16499E-01 1.87066E+01-1.21976E-02
 -1       776-1.26290E+00 2.03950E+01-1.64756E-02
 -1       777-1.40897E+00 2.10809E+01-1.56327E-02
 -1       778-1.19277E+00 2.00570E+01-1.10768E-02
 -1       779-1.55875E+00 2.17715E+01-1.48058E-02
 -1       780-1.71196E+00 2.24668E+01-1.40536E-02
 -1       781-1.48464E+00 2.14285E+01-1.00182E-02
 -1       782-1.86864E+00 2.31662E+01-1.32487E-02
 -1       783-2.02865E+00 2.38695E+01-1.23612E-02
 -1       784-1.79110E+00 2.28185E+01-9.00397E-03
 -1       785-2.19182E+00 2.45764E+01-1.15536E-02
 -1       786-2.35802E+00 2.52865E+01-1.07408E-02
 -1       787-2.11087E+00 2.42247E+01-7.85798E-03
 -1       788-2.52705E+00 2.59996E+01-9.93011E-03
 -1       789-2.69873E+00 2.67155E+01-9.11199E-03
 -1       790-2.44296E+00 2.56447E+01-6.81305E-03
 -1       791-2.87304E+00 2.74338E+01-8.33328E-03
 -1       792-3.04974E+00 2.81541E+01-7.47980E-03
 -1       793-2.78630E+00 2.70760E+01-5.75725E-03
 -1       794-3.22866E+00 2.88763E+01-6.67363E-03
 -1       795-3.40968E+00 2.96001E+01-5.88206E-03
 -1       796-3.13937E+00 2.85163E+01-4.66691E-03
 -1       797-3.59078E+00 3.03177E+01-5.13255E-03
 -1       798-3.77553E+00 3.10437E+01-4.30093E-03
 -1       799-3.49945E+00 2.99560E+01-3.67964E-03
 -1       800-3.97167E+00 3.18085E+01-3.47444E-03
 -1       801-4.15952E+00 3.25358E+01-2.71732E-03
 -1       802-3.87650E+00 3.14382E+01-2.55660E-03
 -1       803-4.22877E+00 3.28034E+01-1.85574E-03
 -1       804-1.26511E+00 2.03998E+01 5.38475E-03
 -1       805-1.12302E+00 1.97192E+01 5.67362E-03
 -1       806-9.84925E-01 1.90441E+01 5.91776E-03
 -1       807-8.50921E-01 1.83746E+01 6.22754E-03
 -1       808-1.05386E+00 1.93815E+01-1.70235E-05
 -1       809-2.19334E+00 2.45797E+01 3.76490E-03
 -1       810-2.03029E+00 2.38731E+01 4.04155E-03
 -1       811-2.52825E+00 2.60025E+01 3.21482E-03
 -1       812-2.35939E+00 2.52896E+01 3.52067E-03
 -1       813-2.27634E+00 2.49346E+01 3.01788E-06
 -1       814-3.40990E+00 2.96002E+01-1.99767E-03
 -1       815-3.59084E+00 3.03175E+01-1.70609E-03
 -1       816-3.76605E+00 3.10065E+01-1.50201E-03
 -1       817-3.67518E+00 3.06494E+01-4.60815E-05
 -1       818-3.96196E+00 3.17710E+01-1.14116E-03
 -1       819-2.46566E-01 1.51248E+01 7.52524E-03
 -1       820-1.39593E-01 1.44965E+01 7.86140E-03
 -1       821-3.75070E-02 1.38763E+01 8.12685E-03
 -1       822 5.95172E-02 1.32646E+01 8.39612E-03
 -1       823-8.84440E-02 1.41862E+01-3.80096E-06
 -1       824-3.58364E-01 1.57606E+01-7.33263E-03
 -1       825-4.74746E-01 1.64039E+01-7.05882E-03
 -1       826-5.95719E-01 1.70543E+01-6.83154E-03
 -1       827-7.21145E-01 1.77113E+01-6.49845E-03
 -1       828-5.35173E-01 1.67289E+01-2.35999E-05
 -1       829-1.41100E+00 2.10855E+01-5.15206E-03
 -1       830-1.56067E+00 2.17759E+01-4.89786E-03
 -1       831-1.71389E+00 2.24709E+01-4.64966E-03
 -1       832-1.87039E+00 2.31701E+01-4.33215E-03
 -1       833-1.63711E+00 2.21234E+01-3.97111E-05
 -1       834-3.05058E+00 2.81563E+01-2.49258E-03
 -1       835-3.22940E+00 2.88783E+01-2.21499E-03
 -1       836-2.69989E+00 2.67181E+01-3.06035E-03
 -1       837-2.87404E+00 2.74362E+01-2.74074E-03
 -1       838-2.96225E+00 2.77962E+01-3.35587E-05
 -1       839 3.96789E-01 1.09082E+01-9.62603E-03
 -1       840 3.20314E-01 1.14831E+01-9.24707E-03
 -1       841 2.38592E-01 1.20676E+01-8.97417E-03
 -1       842 1.51662E-01 1.26615E+01-8.64610E-03
 -1       843 2.79619E-01 1.17751E+01-5.56519E-06
 -1       844 6.59584E-01 1.29093E+00 1.60817E-02
 -1       845 6.10804E-01 1.07041E+00 1.64718E-02
 -1       846 7.04241E-01 1.53120E+00 1.58521E-02
 -1       847 6.81994E-01 1.41060E+00-5.23994E-05
 -1       848 7.44392E-01 1.79051E+00 1.55551E-02
 -1       849 8.58478E-01 3.01009E+00 1.42827E-02
 -1       850 8.37358E-01 2.67855E+00 1.46177E-02
 -1       851 8.11171E-01 2.36451E+00 1.48735E-02
 -1       852 7.80078E-01 2.06834E+00 1.53331E-02
 -1       853 8.24479E-01 2.52113E+00 9.29507E-06
 -1       854 3.78549E-01 3.95723E-01-1.73564E-02
 -1       855 4.42008E-01 5.33433E-01-1.71585E-02
 -1       856 4.71578E-01 6.11049E-01 1.51385E-05
 -1       857 5.01507E-01 6.90791E-01-1.69184E-02
 -1       858 5.56845E-01 8.66205E-01-1.69416E-02
 -1       859 8.39085E-01 6.23917E+00 1.19904E-02
 -1       860 8.60667E-01 5.78339E+00 1.23358E-02
 -1       861 8.76577E-01 5.34172E+00 1.25693E-02
 -1       862 8.87050E-01 4.91444E+00 1.28915E-02
 -1       863 8.68807E-01 5.56224E+00 1.43398E-05
 -1       864 6.98472E-01 8.18750E+00 1.07809E-02
 -1       865 7.41966E-01 7.68150E+00 1.11593E-02
 -1       866 6.49010E-01 8.71060E+00 1.05603E-02
 -1       867 6.74030E-01 8.44752E+00-2.33305E-04
 -1       868 5.94339E-01 9.24188E+00 1.03204E-02
 -1       869 8.85867E-01 3.72371E+00 1.37527E-02
 -1       870 8.74732E-01 3.35861E+00 1.40536E-02
 -1       871 8.92030E-01 4.50210E+00 1.31523E-02
 -1       872 8.91620E-01 4.10506E+00 1.34830E-02
 -1       873 8.88892E-01 3.91401E+00 2.38011E-05
 -1       874 2.44471E-01 1.88042E-01-1.57383E-02
 -1       875 3.15886E-01 2.85923E-01-1.71026E-02
 -1       876 1.90565E-01 1.30769E-01-1.47265E-02
 -1       877 2.32242E-01 1.75974E-01 4.94662E-05
 -1       878 1.52943E-01 9.62085E-02-2.01929E-02
 -1       879 1.40725E-01 8.98685E-02-6.33972E-03
 -1       880 4.41611E-01 5.32741E-01 1.72244E-02
 -1       881 3.78774E-01 3.96240E-01 1.72719E-02
 -1       882 3.16153E-01 2.86281E-01 1.72793E-02
 -1       883 3.49227E-01 3.43857E-01 1.34622E-04
 -1       884 2.44650E-01 1.88252E-01 1.60316E-02
 -1       885-3.96286E+00 3.17744E+01 1.06469E-03
 -1       886-3.76873E+00 3.10170E+01 1.38977E-03
 -1       887-4.10756E+00 3.23356E+01 9.22808E-04
 -1       888-3.99514E+00 3.18996E+01-3.56854E-05
 -1       889-4.21018E+00 3.27320E+01 1.22268E-03
 -1       890-4.24267E+00 3.28573E+01 3.71151E-04
 -1       891 3.20301E-01 1.14830E+01 9.19156E-03
 -1       892 3.96645E-01 1.09083E+01 9.53923E-03
 -1       893 4.67928E-01 1.03426E+01 9.75634E-03
 -1       894 5.34029E-01 9.78580E+00 1.01189E-02
 -1       895 4.32581E-01 1.06247E+01-2.89547E-05
 -1       896-3.59350E+00 3.03280E+01 1.62451E-03
 -1       897-3.40994E+00 2.96001E+01 1.95376E-03
 -1       898-3.22944E+00 2.88782E+01 2.17231E-03
 -1       899-3.05058E+00 2.81563E+01 2.42012E-03
 -1       900-3.31942E+00 2.92383E+01-2.54549E-05
 -1       901 7.80162E-01 2.06841E+00-1.52430E-02
 -1       902 8.11179E-01 2.36454E+00-1.48524E-02
 -1       903 7.05065E-01 1.53607E+00-1.60510E-02
 -1       904 7.44458E-01 1.79052E+00-1.54859E-02
 -1       905 7.62348E-01 1.92902E+00 3.46814E-06
 -1       906 8.60702E-01 5.78343E+00-1.23089E-02
 -1       907 8.39161E-01 6.23917E+00-1.20415E-02
 -1       908 8.12100E-01 6.70860E+00-1.18027E-02
 -1       909 7.79721E-01 7.19044E+00-1.16733E-02
 -1       910 8.25846E-01 6.47361E+00-1.98209E-05
 -1       911 5.33874E-01 9.78684E+00-1.03099E-02
 -1       912 4.68001E-01 1.03425E+01-9.88852E-03
 -1       913 5.94199E-01 9.24291E+00-1.06001E-02
 -1       914 5.64165E-01 9.51485E+00-1.54417E-04
 -1       915 6.48960E-01 8.71126E+00-1.09781E-02
 -1       916 8.74680E-01 3.35861E+00-1.40805E-02
 -1       917 8.85819E-01 3.72373E+00-1.37006E-02
 -1       918 8.37404E-01 2.67857E+00-1.45875E-02
 -1       919 8.58555E-01 3.01008E+00-1.43245E-02
 -1       920 8.66829E-01 3.18397E+00-1.28820E-05
 -1       921 8.87057E-01 4.91442E+00-1.28911E-02
 -1       922 8.76629E-01 5.34171E+00-1.25821E-02
 -1       923 8.91602E-01 4.10502E+00-1.34871E-02
 -1       924 8.92006E-01 4.50210E+00-1.31402E-02
 -1       925 8.89698E-01 4.70791E+00 2.99825E-06
 -1       926 1.38346E-01 8.86728E-02 5.58640E-03
 -1       927 1.50747E-01 9.49590E-02 1.96872E-02
 -1       928 1.90713E-01 1.31100E-01 1.45207E-02
 -1       929-4.24840E+00 3.28792E+01-3.95800E-04
 -1       930-4.21499E+00 3.27504E+01-1.22668E-03
 -1       931-4.10666E+00 3.23321E+01-9.61353E-04
 -1       932-1.12302E+00 1.97192E+01-5.70189E-03
 -1       933-1.26512E+00 2.03998E+01-5.38853E-03
 -1       934-8.50924E-01 1.83746E+01-6.24873E-03
 -1       935-9.84926E-01 1.90441E+01-5.94488E-03
 -1       936-2.03029E+00 2.38731E+01-4.10452E-03
 -1       937-2.19335E+00 2.45797E+01-3.77866E-03
 -1       938-2.35938E+00 2.52896E+01-3.55221E-03
 -1       939-2.52827E+00 2.60025E+01-3.28729E-03
 -1       940-1.39623E-01 1.44965E+01-7.87941E-03
 -1       941-2.46655E-01 1.51247E+01-7.56400E-03
 -1       942 5.95505E-02 1.32646E+01-8.41344E-03
 -1       943-3.75326E-02 1.38764E+01-8.12659E-03
 -1       944-4.74810E-01 1.64039E+01 7.02440E-03
 -1       945-3.58324E-01 1.57607E+01 7.28736E-03
 -1       946-7.21154E-01 1.77112E+01 6.44548E-03
 -1       947-5.95802E-01 1.70542E+01 6.79769E-03
 -1       948-1.56063E+00 2.17760E+01 4.82792E-03
 -1       949-1.41101E+00 2.10855E+01 5.15453E-03
 -1       950-1.87037E+00 2.31701E+01 4.30669E-03
 -1       951-1.71377E+00 2.24709E+01 4.60400E-03
 -1       952 5.57858E-01 8.69499E-01 1.68134E-02
 -1       953 5.01188E-01 6.89965E-01 1.70218E-02
 -1       954 5.84291E-01 9.69085E-01-2.87343E-05
 -1       955 6.60475E-01 1.29539E+00-1.63672E-02
 -1       956 6.09838E-01 1.06669E+00-1.67755E-02
 -1       957-1.33796E+00 2.07426E+01 3.99131E-06
 -1       958 1.51568E-01 1.26615E+01 8.62901E-03
 -1       959 2.38602E-01 1.20676E+01 8.96607E-03
 -1       960-3.02363E-01 1.54426E+01-1.97811E-05
 -1       961 7.79722E-01 7.19090E+00 1.15485E-02
 -1       962 8.12152E-01 6.70861E+00 1.17607E-02
 -1       963 7.61149E-01 7.43386E+00-1.09832E-04
 -1       964 7.42028E-01 7.68094E+00-1.15748E-02
 -1       965 6.98459E-01 8.18811E+00-1.12675E-02
 -1       966-1.95027E+00 2.35215E+01-2.58499E-05
 -1       967-2.87403E+00 2.74362E+01 2.66557E-03
 -1       968-2.69983E+00 2.67181E+01 2.98761E-03
 -1       969-2.61397E+00 2.63603E+01-3.98341E-05
 -1       970 1.05699E-01 1.29628E+01-2.57350E-06
 -1       971-7.85892E-01 1.80428E+01-2.44021E-05
 -1       972-5.55587E+00 1.83056E+01-1.11674E-02
 -1       973-7.03900E+00 2.37238E+01-6.76271E-03
 -1       974-8.58046E+00 2.93900E+01 2.38863E-03
 -1       975-4.19726E+00 1.32962E+01-1.56923E-02
 -1       976-4.85766E+00 1.57404E+01-1.34103E-02
 -1       977-6.28534E+00 2.09729E+01-8.96477E-03
 -1       978-7.80843E+00 2.65404E+01 4.47703E-03
 -1       979-3.58011E+00 1.09925E+01 1.80151E-02
 -1       980-8.60471E-01 1.27706E+00-3.30167E-02
 -1       981-1.20843E+00 2.29976E+00-3.02343E-02
 -1       982-5.37622E-01 5.46057E-01 3.53799E-02
 -1       983-2.01635E+00 5.12646E+00-2.52348E-02
 -1       984-2.74169E+00 7.83949E+00-2.16457E-02
 -1       985-1.59102E+00 3.59002E+00-2.77194E-02
 -1       986-2.17754E-01 1.22301E-01 3.35438E-02
 -1       987-3.80955E-01 2.96303E-01-3.63894E-02
 -1       988-8.99022E+00 3.09173E+01-1.36776E-03
 -1       989-5.91718E+00 1.96276E+01 1.00013E-02
 -1       990-3.28890E+00 9.89943E+00-1.92233E-02
 -1       991-8.19614E+00 2.79678E+01-3.50100E-03
 -1       992-4.52243E+00 1.45020E+01 1.45105E-02
 -1       993-6.65987E+00 2.23390E+01 7.76881E-03
 -1       994-5.20230E+00 1.70091E+01 1.22424E-02
 -1       995-1.03054E+00 1.75369E+00 3.15167E-02
 -1       996-2.24614E+00 5.98002E+00 2.39625E-02
 -1       997-3.00894E+00 8.84560E+00 2.06814E-02
 -1       998-1.39457E+00 2.91281E+00 2.89496E-02
 -1       999-1.79805E+00 4.32889E+00 2.64835E-02
 -1      1000-1.03721E-01 5.56430E-02-1.05875E-02
 -1      1001-9.27928E+00 3.20010E+01 2.34409E-04
 -1      1002-3.80333E-01 2.95372E-01 3.66242E-02
 -1      1003-5.36887E-01 5.44616E-01-3.55108E-02
 -1      1004-6.96443E-01 8.73008E-01-3.43653E-02
 -1      1005-7.79003E-01 1.07372E+00 1.23487E-04
 -1      1006-8.58604E+00 2.94109E+01-2.44525E-03
 -1      1007-5.91726E+00 1.96276E+01-1.00477E-02
 -1      1008-7.03913E+00 2.37238E+01 6.65880E-03
 -1      1009-4.19723E+00 1.32962E+01 1.56764E-02
 -1      1010-3.28860E+00 9.89911E+00 1.93220E-02
 -1      1011-3.58016E+00 1.09925E+01-1.80433E-02
 -1      1012-4.52228E+00 1.45021E+01-1.45772E-02
 -1      1013-3.88285E+00 1.21257E+01 1.68262E-02
 -1      1014-1.39460E+00 2.91272E+00-2.89969E-02
 -1      1015-2.24607E+00 5.97995E+00-2.40239E-02
 -1      1016-2.48823E+00 6.88590E+00-2.29598E-02
 -1      1017-2.61353E+00 7.35472E+00 2.13502E-04
 -1      1018-2.01623E+00 5.12656E+00 2.52338E-02
 -1      1019-4.85761E+00 1.57404E+01 1.33767E-02
 -1      1020-6.65979E+00 2.23390E+01-7.86645E-03
 -1      1021-3.00831E+00 8.84348E+00-2.06175E-02
 -1      1022-8.19623E+00 2.79678E+01 3.38242E-03
 -1      1023-7.80849E+00 2.65404E+01-4.56953E-03
 -1      1024-1.59112E+00 3.59001E+00 2.77157E-02
 -1      1025-1.20830E+00 2.29973E+00 3.02667E-02
 -1      1026-7.42232E+00 2.51249E+01-5.63893E-03
 -1      1027-5.55586E+00 1.83056E+01 1.11187E-02
 -1      1028-1.03076E+00 1.75372E+00-3.15919E-02
 -1      1029-3.88303E+00 1.21255E+01-1.68847E-02
 -1      1030-1.79801E+00 4.32889E+00-2.64855E-02
 -1      1031-7.42239E+00 2.51249E+01 5.55719E-03
 -1      1032-5.20238E+00 1.70091E+01-1.22996E-02
 -1      1033-6.28548E+00 2.09728E+01 8.87932E-03
 -1      1034-3.10789E-01 2.18908E-01-2.49273E-04
 -1      1035-4.59620E-01 4.19691E-01 3.47273E-05
 -1      1036-8.63858E-01 1.28566E+00 3.33638E-02
 -1      1037-1.08997E-01 5.78714E-02 1.15702E-02
 -1      1038-2.48798E+00 6.88479E+00 2.32381E-02
 -1      1039-2.87565E+00 8.34159E+00 1.77598E-04
 -1      1040-8.75823E+00 3.00504E+01-7.60641E-05
 -1      1041-6.93660E-01 8.66417E-01 3.47206E-02
 -1      1042-8.38986E+00 2.86827E+01-5.87432E-06
 -1      1043-9.46228E-01 1.51448E+00-3.67131E-05
 -1      1044-6.84981E+00 2.30308E+01-2.12746E-05
 -1      1045-7.23116E+00 2.44238E+01-1.04380E-04
 -1      1046-6.10167E+00 2.02996E+01-3.57305E-05
 -1      1047-8.00266E+00 2.72537E+01-5.31671E-05
 -1      1048-4.69026E+00 1.51204E+01-2.85297E-05
 -1      1049-3.73189E+00 1.15581E+01 1.98415E-05
 -1      1050-5.03020E+00 1.63740E+01-7.52802E-05
 -1      1051-5.37939E+00 1.76566E+01-4.21512E-05
 -1      1052-7.61583E+00 2.58322E+01-3.18155E-05
 -1      1053-6.47304E+00 2.16553E+01 2.34992E-05
 -1      1054-3.14907E+00 9.37109E+00 3.83648E-05
 -1      1055-1.12004E+00 2.02560E+00-5.54011E-05
 -1      1056-1.30210E+00 2.60504E+00 7.00757E-05
 -1      1057-4.04045E+00 1.27101E+01 5.95297E-06
 -1      1058-1.69498E+00 3.95835E+00-2.71244E-05
 -1      1059-1.90756E+00 4.72654E+00-2.10546E-05
 -1      1060-1.49341E+00 3.25029E+00 2.72881E-05
 -1      1061-4.36013E+00 1.38983E+01 6.80601E-06
 -1      1062-5.73684E+00 1.89659E+01-3.14456E-05
 -1      1063-2.13171E+00 5.55207E+00 5.32067E-05
 -1      1064-3.43485E+00 1.04450E+01-8.13886E-05
 -1      1065-2.36779E+00 6.43225E+00 3.24956E-05
 -1      1066-2.74211E+00 7.84065E+00 2.20463E-02
 -1      1067-6.16620E-01 7.06572E-01-2.72946E-05
 -1      1068-9.26773E+00 3.19571E+01-3.77801E-04
 -1      1069-2.18206E-01 1.22741E-01-3.34342E-02
 -1      1070-8.98838E+00 3.09104E+01 1.26045E-03
 -1      1071-1.90506E-01 1.09307E-01 1.28446E-04
 -1      1072-9.34632E-02 4.38685E-02 3.04496E-02
 -1      1073-9.27402E-02 4.44126E-02-3.00221E-02
 -1      1074-9.30513E+00 3.20996E+01-7.16835E-04
 -1      1075-9.30712E+00 3.21069E+01 5.91314E-04
 -1      1076-9.05697E+00 3.11667E+01-4.39266E-05
 -1      1077-4.52755E-02 2.21745E-02 2.29825E-02
 -1      1078-4.45448E-02 2.74000E-02 1.46718E-02
 -1      1079-1.23755E-01 4.82327E-02 4.80884E-02
 -1      1080-4.33016E-02 2.56577E-02-1.45462E-02
 -1      1081-4.49807E-02 2.19368E-02-2.26013E-02
 -1      1082-1.23314E-01 4.84155E-02-4.79139E-02
 -1      1083-9.42948E+00 3.25670E+01 1.47839E-04
 -1      1084-9.42902E+00 3.25668E+01 2.66267E-04
 -1      1085-9.23576E+00 3.18403E+01 1.08739E-03
 -1      1086-9.42803E+00 3.25631E+01-3.87552E-04
 -1      1087-9.42851E+00 3.25633E+01-2.72014E-04
 -1      1088-9.23477E+00 3.18366E+01-1.20716E-03
 -1      1089-4.90264E-02 3.04173E-02-3.26509E-03
 -1      1090-5.02480E-02 3.11633E-02-9.64328E-03
 -1      1091-9.85168E-02 5.10893E-02-1.99691E-02
 -1      1092-5.09861E-02 3.10288E-02 1.03389E-02
 -1      1093-5.26187E-02 3.33059E-02 3.29057E-03
 -1      1094-1.06573E-01 5.81505E-02 2.84027E-04
 -1      1095-1.00926E-01 5.15937E-02 2.09581E-02
 -1      1096-9.40972E+00 3.24919E+01-2.53256E-04
 -1      1097-9.40988E+00 3.24920E+01-1.34737E-04
 -1      1098-9.28650E+00 3.20284E+01-5.75521E-04
 -1      1099-9.41564E+00 3.25140E+01-6.18466E-06
 -1      1100-9.41559E+00 3.25139E+01 1.31561E-04
 -1      1101-9.27357E+00 3.19791E+01-7.25589E-05
 -1      1102-9.29327E+00 3.20540E+01 4.31241E-04
 -1      1103-1.84383E-01 8.69705E-02-4.97874E-02
 -1      1104-2.61251E-01 1.48396E-01-5.38670E-02
 -1      1105-1.54930E-01 7.65591E-02-3.42042E-02
 -1      1106-3.41715E-01 2.35392E-01-5.51016E-02
 -1      1107-4.19200E-01 3.40093E-01-5.48124E-02
 -1      1108-2.99445E-01 1.98217E-01-3.56144E-02
 -1      1109-4.96735E-01 4.64440E-01-5.40653E-02
 -1      1110-5.75345E-01 6.09237E-01-5.31335E-02
 -1      1111-4.58726E-01 4.10539E-01-3.60662E-02
 -1      1112-6.54896E-01 7.73685E-01-5.22215E-02
 -1      1113-7.35365E-01 9.56975E-01-5.12189E-02
 -1      1114-6.16111E-01 6.99134E-01-3.49961E-02
 -1      1115-8.17247E-01 1.15928E+00-5.02280E-02
 -1      1116-9.00448E-01 1.37959E+00-4.92086E-02
 -1      1117-7.77668E-01 1.06571E+00-3.37304E-02
 -1      1118-9.85484E-01 1.61819E+00-4.82027E-02
 -1      1119-1.07217E+00 1.87420E+00-4.72076E-02
 -1      1120-9.44646E-01 1.50634E+00-3.23045E-02
 -1      1121-1.16092E+00 2.14747E+00-4.62073E-02
 -1      1122-1.25177E+00 2.43773E+00-4.52429E-02
 -1      1123-1.11848E+00 2.01808E+00-3.09307E-02
 -1      1124-1.34478E+00 2.74444E+00-4.42944E-02
 -1      1125-1.44041E+00 3.06740E+00-4.33803E-02
 -1      1126-1.30034E+00 2.59805E+00-2.95992E-02
 -1      1127-1.53852E+00 3.40637E+00-4.24497E-02
 -1      1128-1.63926E+00 3.76077E+00-4.14552E-02
 -1      1129-1.49147E+00 3.24357E+00-2.83670E-02
 -1      1130-1.74269E+00 4.13050E+00-4.05538E-02
 -1      1131-1.84890E+00 4.51500E+00-3.95799E-02
 -1      1132-1.69306E+00 3.95200E+00-2.71048E-02
 -1      1133-1.95801E+00 4.91402E+00-3.86515E-02
 -1      1134-2.07003E+00 5.32727E+00-3.77092E-02
 -1      1135-1.90568E+00 4.72044E+00-2.58568E-02
 -1      1136-2.18489E+00 5.75422E+00-3.67854E-02
 -1      1137-2.30299E+00 6.19465E+00-3.59392E-02
 -1      1138-2.12972E+00 5.54639E+00-2.46145E-02
 -1      1139-2.42400E+00 6.64784E+00-3.51049E-02
 -1      1140-2.54813E+00 7.11424E+00-3.41243E-02
 -1      1141-2.36554E+00 6.42645E+00-2.35389E-02
 -1      1142-2.67492E+00 7.59131E+00-3.31882E-02
 -1      1143-2.80525E+00 8.08227E+00-3.23093E-02
 -1      1144-2.61334E+00 7.35652E+00-2.22939E-02
 -1      1145-2.93855E+00 8.58457E+00-3.14907E-02
 -1      1146-3.07507E+00 9.09879E+00-3.05355E-02
 -1      1147-2.87338E+00 8.33569E+00-2.11726E-02
 -1      1148-3.21540E+00 9.62707E+00-2.95666E-02
 -1      1149-3.35800E+00 1.01633E+01-2.86402E-02
 -1      1150-3.14700E+00 9.36599E+00-1.99190E-02
 -1      1151-3.50365E+00 1.07100E+01-2.77618E-02
 -1      1152-3.65224E+00 1.12670E+01-2.68706E-02
 -1      1153-3.43298E+00 1.04407E+01-1.86337E-02
 -1      1154-3.80371E+00 1.18337E+01-2.59987E-02
 -1      1155-3.95812E+00 1.24100E+01-2.51093E-02
 -1      1156-3.73010E+00 1.15542E+01-1.74487E-02
 -1      1157-4.11531E+00 1.29956E+01-2.42487E-02
 -1      1158-4.27525E+00 1.35901E+01-2.33368E-02
 -1      1159-4.03870E+00 1.27064E+01-1.62980E-02
 -1      1160-4.43783E+00 1.41932E+01-2.25110E-02
 -1      1161-4.60299E+00 1.48046E+01-2.16365E-02
 -1      1162-4.35841E+00 1.38950E+01-1.51430E-02
 -1      1163-4.77073E+00 1.54240E+01-2.07910E-02
 -1      1164-4.94082E+00 1.60512E+01-1.98945E-02
 -1      1165-4.68864E+00 1.51173E+01-1.39903E-02
 -1      1166-5.11325E+00 1.66857E+01-1.90540E-02
 -1      1167-5.28793E+00 1.73273E+01-1.81936E-02
 -1      1168-5.02882E+00 1.63711E+01-1.28592E-02
 -1      1169-5.46475E+00 1.79758E+01-1.73554E-02
 -1      1170-5.64361E+00 1.86307E+01-1.64895E-02
 -1      1171-5.37802E+00 1.76540E+01-1.17300E-02
 -1      1172-5.82437E+00 1.92920E+01-1.56497E-02
 -1      1173-6.00694E+00 1.99592E+01-1.47830E-02
 -1      1174-5.73556E+00 1.89635E+01-1.06025E-02
 -1      1175-6.19106E+00 2.06320E+01-1.39419E-02
 -1      1176-6.37693E+00 2.13101E+01-1.31430E-02
 -1      1177-6.10049E+00 2.02975E+01-9.48869E-03
 -1      1178-6.56421E+00 2.19934E+01-1.23308E-02
 -1      1179-6.75279E+00 2.26814E+01-1.14408E-02
 -1      1180-6.47185E+00 2.16535E+01-8.41595E-03
 -1      1181-6.94253E+00 2.33740E+01-1.06203E-02
 -1      1182-7.13332E+00 2.40708E+01-9.79845E-03
 -1      1183-6.84878E+00 2.30292E+01-7.26892E-03
 -1      1184-7.32506E+00 2.47716E+01-8.97957E-03
 -1      1185-7.51758E+00 2.54761E+01-8.15101E-03
 -1      1186-7.23022E+00 2.44225E+01-6.20775E-03
 -1      1187-7.71073E+00 2.61840E+01-7.34980E-03
 -1      1188-7.90435E+00 2.68950E+01-6.46054E-03
 -1      1189-7.61506E+00 2.58311E+01-5.13743E-03
 -1      1190-8.09831E+00 2.76089E+01-5.65475E-03
 -1      1191-8.29247E+00 2.83254E+01-4.83713E-03
 -1      1192-8.00212E+00 2.72528E+01-4.00038E-03
 -1      1193-8.48752E+00 2.90472E+01-4.06503E-03
 -1      1194-8.68166E+00 2.97679E+01-3.24305E-03
 -1      1195-8.39107E+00 2.86883E+01-2.96688E-03
 -1      1196-8.88383E+00 3.05213E+01-2.44750E-03
 -1      1197-9.07740E+00 3.12453E+01-1.70248E-03
 -1      1198-8.78821E+00 3.01633E+01-1.86895E-03
 -1      1199-9.14777E+00 3.15080E+01-1.11893E-03
 -1      1200-2.61013E-01 1.48121E-01 5.39462E-02
 -1      1201-1.84157E-01 8.67195E-02 4.98693E-02
 -1      1202-1.55056E-01 7.63804E-02 3.44675E-02
 -1      1203-4.18898E-01 3.39524E-01 5.49092E-02
 -1      1204-3.41397E-01 2.34955E-01 5.52288E-02
 -1      1205-2.98921E-01 1.97550E-01 3.57951E-02
 -1      1206-5.75667E-01 6.10015E-01 5.30636E-02
 -1      1207-4.97149E-01 4.65172E-01 5.39994E-02
 -1      1208-4.58652E-01 4.10629E-01 3.60536E-02
 -1      1209-7.33955E-01 9.53505E-01 5.13818E-02
 -1      1210-6.53461E-01 7.70544E-01 5.24019E-02
 -1      1211-6.15187E-01 6.97026E-01 3.51179E-02
 -1      1212-9.02089E-01 1.38412E+00 4.93524E-02
 -1      1213-8.18893E-01 1.16337E+00 5.03894E-02
 -1      1214-7.77875E-01 1.06603E+00 3.40785E-02
 -1      1215-1.07213E+00 1.87416E+00 4.71856E-02
 -1      1216-9.85322E-01 1.61826E+00 4.81094E-02
 -1      1217-9.46363E-01 1.51111E+00 3.24277E-02
 -1      1218-1.25176E+00 2.43764E+00 4.52322E-02
 -1      1219-1.16089E+00 2.14749E+00 4.62593E-02
 -1      1220-1.11832E+00 2.01819E+00 3.08984E-02
 -1      1221-1.44035E+00 3.06746E+00 4.34161E-02
 -1      1222-1.34487E+00 2.74444E+00 4.42863E-02
 -1      1223-1.30017E+00 2.59804E+00 2.95551E-02
 -1      1224-1.63926E+00 3.76082E+00 4.14732E-02
 -1      1225-1.53853E+00 3.40631E+00 4.24514E-02
 -1      1226-1.49156E+00 3.24354E+00 2.83720E-02
 -1      1227-1.84892E+00 4.51500E+00 3.95479E-02
 -1      1228-1.74266E+00 4.13048E+00 4.05449E-02
 -1      1229-1.69317E+00 3.95198E+00 2.71009E-02
 -1      1230-2.06998E+00 5.32723E+00 3.77078E-02
 -1      1231-1.95802E+00 4.91405E+00 3.86318E-02
 -1      1232-1.90557E+00 4.72048E+00 2.58105E-02
 -1      1233-2.30291E+00 6.19471E+00 3.59177E-02
 -1      1234-2.18496E+00 5.75421E+00 3.67867E-02
 -1      1235-2.12961E+00 5.54638E+00 2.45915E-02
 -1      1236-2.54802E+00 7.11369E+00 3.42695E-02
 -1      1237-2.42380E+00 6.64728E+00 3.52204E-02
 -1      1238-2.36553E+00 6.42593E+00 2.36523E-02
 -1      1239-2.80538E+00 8.08286E+00 3.24276E-02
 -1      1240-2.67507E+00 7.59186E+00 3.33924E-02
 -1      1241-2.61340E+00 7.35664E+00 2.26777E-02
 -1      1242-3.07535E+00 9.09991E+00 3.05340E-02
 -1      1243-2.93883E+00 8.58560E+00 3.14544E-02
 -1      1244-2.87391E+00 8.33725E+00 2.13594E-02
 -1      1245-3.35792E+00 1.01631E+01 2.87260E-02
 -1      1246-3.21522E+00 9.62691E+00 2.95472E-02
 -1      1247-3.14725E+00 9.36685E+00 1.99952E-02
 -1      1248-3.65224E+00 1.12670E+01 2.68078E-02
 -1      1249-3.50365E+00 1.07100E+01 2.77716E-02
 -1      1250-3.43279E+00 1.04406E+01 1.87073E-02
 -1      1251-3.95809E+00 1.24100E+01 2.50801E-02
 -1      1252-3.80372E+00 1.18337E+01 2.59355E-02
 -1      1253-3.72996E+00 1.15542E+01 1.73791E-02
 -1      1254-4.27522E+00 1.35901E+01 2.33198E-02
 -1      1255-4.11531E+00 1.29956E+01 2.42214E-02
 -1      1256-4.03862E+00 1.27064E+01 1.62568E-02
 -1      1257-4.60302E+00 1.48046E+01 2.15736E-02
 -1      1258-4.43787E+00 1.41932E+01 2.24742E-02
 -1      1259-4.35840E+00 1.38949E+01 1.50852E-02
 -1      1260-4.94082E+00 1.60511E+01 1.98422E-02
 -1      1261-4.77066E+00 1.54240E+01 2.07169E-02
 -1      1262-4.68874E+00 1.51173E+01 1.39408E-02
 -1      1263-5.28792E+00 1.73273E+01 1.81636E-02
 -1      1264-5.11326E+00 1.66857E+01 1.90090E-02
 -1      1265-5.02877E+00 1.63712E+01 1.28132E-02
 -1      1266-5.64359E+00 1.86308E+01 1.64176E-02
 -1      1267-5.46475E+00 1.79758E+01 1.73209E-02
 -1      1268-5.37803E+00 1.76540E+01 1.16882E-02
 -1      1269-6.00693E+00 1.99591E+01 1.47431E-02
 -1      1270-5.82433E+00 1.92920E+01 1.55831E-02
 -1      1271-5.73553E+00 1.89635E+01 1.05489E-02
 -1      1272-6.37696E+00 2.13101E+01 1.30491E-02
 -1      1273-6.19117E+00 2.06320E+01 1.39249E-02
 -1      1274-6.10048E+00 2.02976E+01 9.44083E-03
 -1      1275-6.75280E+00 2.26815E+01 1.13699E-02
 -1      1276-6.56422E+00 2.19934E+01 1.22204E-02
 -1      1277-6.47194E+00 2.16534E+01 8.32312E-03
 -1      1278-7.13333E+00 2.40709E+01 9.71417E-03
 -1      1279-6.94251E+00 2.33740E+01 1.05391E-02
 -1      1280-6.84891E+00 2.30292E+01 7.20605E-03
 -1      1281-7.51759E+00 2.54761E+01 8.03213E-03
 -1      1282-7.32504E+00 2.47716E+01 8.89560E-03
 -1      1283-7.23032E+00 2.44225E+01 6.11020E-03
 -1      1284-7.90430E+00 2.68951E+01 6.38187E-03
 -1      1285-7.71071E+00 2.61841E+01 7.24061E-03
 -1      1286-7.61509E+00 2.58311E+01 5.02291E-03
 -1      1287-8.29248E+00 2.83254E+01 4.76206E-03
 -1      1288-8.09828E+00 2.76089E+01 5.57659E-03
 -1      1289-8.00214E+00 2.72527E+01 3.91836E-03
 -1      1290-8.67884E+00 2.97575E+01 3.18431E-03
 -1      1291-8.48468E+00 2.90367E+01 3.99848E-03
 -1      1292-8.38832E+00 2.86779E+01 2.89751E-03
 -1      1293-9.07648E+00 3.12419E+01 1.59679E-03
 -1      1294-8.88288E+00 3.05178E+01 2.35183E-03
 -1      1295-8.78455E+00 3.01494E+01 1.80810E-03
 -1      1296-9.14785E+00 3.15082E+01 9.94065E-04
 -1      1297-5.64644E+00 1.86356E+01-5.47302E-03
 -1      1298-5.82712E+00 1.92965E+01-5.15936E-03
 -1      1299-5.29098E+00 1.73327E+01-6.04748E-03
 -1      1300-5.46770E+00 1.79808E+01-5.72484E-03
 -1      1301-5.55707E+00 1.83081E+01-2.14406E-05
 -1      1302-6.75494E+00 2.26848E+01-3.82033E-03
 -1      1303-6.94451E+00 2.33772E+01-3.50743E-03
 -1      1304-7.13519E+00 2.40737E+01-3.30667E-03
 -1      1305-7.32683E+00 2.47742E+01-2.98069E-03
 -1      1306-7.03988E+00 2.37253E+01-2.58304E-05
 -1      1307-8.48526E+00 2.90362E+01 1.31156E-03
 -1      1308-8.29317E+00 2.83251E+01 1.55562E-03
 -1      1309-8.57405E+00 2.93657E+01-2.32355E-05
 -1      1310-8.66949E+00 2.97202E+01 1.06490E-03
 -1      1311-8.87342E+00 3.04802E+01 7.48297E-04
 -1      1312-4.27879E+00 1.35971E+01-7.74748E-03
 -1      1313-4.44130E+00 1.41999E+01-7.42753E-03
 -1      1314-3.96183E+00 1.24176E+01-8.33923E-03
 -1      1315-4.11894E+00 1.30029E+01-7.99237E-03
 -1      1316-4.19886E+00 1.32998E+01-1.09277E-05
 -1      1317-4.60638E+00 1.48110E+01-7.18063E-03
 -1      1318-4.77403E+00 1.54302E+01-6.84167E-03
 -1      1319-4.94405E+00 1.60570E+01-6.60179E-03
 -1      1320-5.11638E+00 1.66913E+01-6.30924E-03
 -1      1321-4.85896E+00 1.57434E+01 4.81314E-07
 -1      1322-6.00959E+00 1.99635E+01-4.90741E-03
 -1      1323-6.19362E+00 2.06360E+01-4.64250E-03
 -1      1324-6.37927E+00 2.13140E+01-4.38396E-03
 -1      1325-6.56650E+00 2.19970E+01-4.05716E-03
 -1      1326-6.28651E+00 2.09748E+01-5.66170E-05
 -1      1327-8.09954E+00 2.76106E+01 1.76911E-03
 -1      1328-7.90570E+00 2.68969E+01 2.08783E-03
 -1      1329-7.71223E+00 2.61862E+01 2.34223E-03
 -1      1330-7.51923E+00 2.54785E+01 2.64783E-03
 -1      1331-7.80900E+00 2.65415E+01-4.34926E-05
 -1      1332-3.50755E+00 1.07185E+01 9.13290E-03
 -1      1333-3.36179E+00 1.01719E+01 9.53377E-03
 -1      1334-3.80743E+00 1.18416E+01 8.52505E-03
 -1      1335-3.65608E+00 1.12751E+01 8.89295E-03
 -1      1336-3.58183E+00 1.09966E+01-1.08355E-05
 -1      1337-7.37839E-01 9.73064E-01-1.70328E-02
 -1      1338-8.19929E-01 1.17505E+00-1.66606E-02
 -1      1339-8.61755E-01 1.28496E+00 3.41422E-05
 -1      1340-9.03479E-01 1.39547E+00-1.64210E-02
 -1      1341-9.88640E-01 1.63369E+00-1.59876E-02
 -1      1342-1.25535E+00 2.45215E+00-1.49889E-02
 -1      1343-1.34848E+00 2.75854E+00-1.46577E-02
 -1      1344-1.07551E+00 1.88933E+00-1.57077E-02
 -1      1345-1.16437E+00 2.16226E+00-1.53088E-02
 -1      1346-1.20987E+00 2.30692E+00 2.41418E-05
 -1      1347-4.98797E-01 4.82429E-01 1.78663E-02
 -1      1348-4.19974E-01 3.57136E-01 1.82886E-02
 -1      1349-5.77264E-01 6.26061E-01 1.75611E-02
 -1      1350-5.37663E-01 5.53412E-01-6.89647E-05
 -1      1351-6.55379E-01 7.86331E-01 1.75705E-02
 -1      1352-2.07411E+00 5.33905E+00-1.24902E-02
 -1      1353-2.18902E+00 5.76568E+00-1.21710E-02
 -1      1354-1.85289E+00 4.52745E+00-1.31353E-02
 -1      1355-1.96206E+00 4.92614E+00-1.27846E-02
 -1      1356-2.01807E+00 5.13235E+00 1.30863E-05
 -1      1357-2.55101E+00 7.12014E+00-1.12532E-02
 -1      1358-2.67772E+00 7.59680E+00-1.08656E-02
 -1      1359-2.74294E+00 7.84212E+00 1.84542E-04
 -1      1360-2.80875E+00 8.09031E+00-1.06325E-02
 -1      1361-2.94211E+00 8.59233E+00-1.03855E-02
 -1      1362-1.44407E+00 3.08123E+00-1.44014E-02
 -1      1363-1.54233E+00 3.41983E+00-1.40196E-02
 -1      1364-1.64310E+00 3.77389E+00-1.37666E-02
 -1      1365-1.74661E+00 4.14329E+00-1.34139E-02
 -1      1366-1.59276E+00 3.59657E+00 9.16287E-06
 -1      1367-3.45667E-01 2.57343E-01 1.81782E-02
 -1      1368-2.63983E-01 1.68611E-01 1.70500E-02
 -1      1369-2.50491E-01 1.58021E-01-2.51622E-05
 -1      1370-2.03890E-01 1.17277E-01 1.60877E-02
 -1      1371-1.49343E-01 8.10076E-02 7.10987E-03
 -1      1372-1.62425E-01 8.61296E-02 2.23343E-02
 -1      1373-4.20313E-01 3.57635E-01-1.81556E-02
 -1      1374-4.98443E-01 4.81804E-01-1.79563E-02
 -1      1375-3.85120E-01 3.10184E-01-1.25541E-04
 -1      1376-3.45990E-01 2.57679E-01-1.83454E-02
 -1      1377-2.64167E-01 1.68792E-01-1.72528E-02
 -1      1378-8.67228E+00 2.97306E+01-1.13598E-03
 -1      1379-8.87433E+00 3.04837E+01-8.30597E-04
 -1      1380-8.90766E+00 3.06082E+01-4.10302E-05
 -1      1381-9.02370E+00 3.10421E+01-6.62638E-04
 -1      1382-9.12906E+00 3.14370E+01-7.99921E-04
 -1      1383-9.16243E+00 3.15618E+01-2.77795E-04
 -1      1384-5.82709E+00 1.92965E+01 5.11182E-03
 -1      1385-5.64644E+00 1.86356E+01 5.42624E-03
 -1      1386-6.19367E+00 2.06360E+01 4.54475E-03
 -1      1387-6.00952E+00 1.99634E+01 4.87522E-03
 -1      1388-5.91832E+00 1.96299E+01-1.21951E-05
 -1      1389-3.36198E+00 1.01720E+01-9.51611E-03
 -1      1390-3.50757E+00 1.07184E+01-9.19262E-03
 -1      1391-3.07878E+00 9.10705E+00-1.01878E-02
 -1      1392-3.21909E+00 9.63497E+00-9.73398E-03
 -1      1393-3.29034E+00 9.90269E+00 3.60459E-05
 -1      1394-8.29314E+00 2.83251E+01-1.66332E-03
 -1      1395-8.48808E+00 2.90467E+01-1.35828E-03
 -1      1396-7.90573E+00 2.68969E+01-2.18573E-03
 -1      1397-8.09951E+00 2.76106E+01-1.90159E-03
 -1      1398-8.19607E+00 2.79670E+01-7.37521E-05
 -1      1399-4.44134E+00 1.41999E+01 7.38325E-03
 -1      1400-4.27878E+00 1.35970E+01 7.72468E-03
 -1      1401-4.77400E+00 1.54302E+01 6.82177E-03
 -1      1402-4.60643E+00 1.48110E+01 7.12221E-03
 -1      1403-4.52386E+00 1.45053E+01-2.79970E-05
 -1      1404-6.94454E+00 2.33771E+01 3.45059E-03
 -1      1405-6.75496E+00 2.26848E+01 3.74208E-03
 -1      1406-6.56652E+00 2.19969E+01 4.00589E-03
 -1      1407-6.37938E+00 2.13139E+01 4.31186E-03
 -1      1408-6.66074E+00 2.23408E+01-3.99239E-05
 -1      1409-5.11637E+00 1.66913E+01 6.23855E-03
 -1      1410-4.94401E+00 1.60571E+01 6.54976E-03
 -1      1411-5.46771E+00 1.79809E+01 5.67517E-03
 -1      1412-5.29096E+00 1.73326E+01 5.98897E-03
 -1      1413-5.20364E+00 1.70118E+01-2.28963E-05
 -1      1414-1.16432E+00 2.16230E+00 1.52991E-02
 -1      1415-1.07538E+00 1.88933E+00 1.56416E-02
 -1      1416-9.88580E-01 1.63372E+00 1.59453E-02
 -1      1417-9.05212E-01 1.40003E+00 1.65656E-02
 -1      1418-1.03208E+00 1.76122E+00 2.42512E-05
 -1      1419-2.18898E+00 5.76570E+00 1.21231E-02
 -1      1420-2.07404E+00 5.33903E+00 1.25220E-02
 -1      1421-2.42800E+00 6.65827E+00 1.18067E-02
 -1      1422-2.30707E+00 6.20585E+00 1.18559E-02
 -1      1423-2.24807E+00 5.98550E+00-2.56120E-05
 -1      1424-3.21897E+00 9.63479E+00 9.85647E-03
 -1      1425-3.07913E+00 9.10815E+00 1.02343E-02
 -1      1426-3.01076E+00 8.85069E+00 8.23054E-05
 -1      1427-2.94239E+00 8.59329E+00 1.05679E-02
 -1      1428-2.80900E+00 8.09094E+00 1.09856E-02
 -1      1429-1.54238E+00 3.41979E+00 1.40500E-02
 -1      1430-1.44413E+00 3.08125E+00 1.43496E-02
 -1      1431-1.34843E+00 2.75854E+00 1.46299E-02
 -1      1432-1.25529E+00 2.45211E+00 1.50477E-02
 -1      1433-1.39635E+00 2.91958E+00-1.99335E-05
 -1      1434-1.96202E+00 4.92621E+00 1.27632E-02
 -1      1435-1.85287E+00 4.52744E+00 1.31283E-02
 -1      1436-1.74663E+00 4.14329E+00 1.34009E-02
 -1      1437-1.64316E+00 3.77391E+00 1.37421E-02
 -1      1438-1.79977E+00 4.33510E+00 1.32866E-07
 -1      1439-1.46789E-01 7.98942E-02-6.31525E-03
 -1      1440-2.04053E-01 1.17562E-01-1.58671E-02
 -1      1441-1.60104E-01 8.50411E-02-2.18094E-02
 -1      1442-9.16820E+00 3.15837E+01 1.59531E-04
 -1      1443-9.13395E+00 3.14554E+01 6.46159E-04
 -1      1444-9.02279E+00 3.10386E+01 5.70057E-04
 -1      1445-5.76847E-01 6.25265E-01-1.76922E-02
 -1      1446-6.56740E-01 7.89385E-01-1.74264E-02
 -1      1447-6.97164E-01 8.80534E-01 4.03289E-05
 -1      1448-7.36437E-01 9.69634E-01 1.73231E-02
 -1      1449-8.21593E-01 1.17917E+00 1.69453E-02
 -1      1450-7.32686E+00 2.47742E+01 2.86263E-03
 -1      1451-7.13526E+00 2.40737E+01 3.17723E-03
 -1      1452-4.11895E+00 1.30029E+01 7.97922E-03
 -1      1453-3.96180E+00 1.24176E+01 8.27158E-03
 -1      1454-3.65610E+00 1.12751E+01-8.90244E-03
 -1      1455-3.80750E+00 1.18415E+01-8.58737E-03
 -1      1456-3.88461E+00 1.21294E+01-4.39560E-05
 -1      1457-2.30700E+00 6.20585E+00-1.19131E-02
 -1      1458-2.42811E+00 6.65877E+00-1.16332E-02
 -1      1459-2.48906E+00 6.88726E+00 1.37999E-04
 -1      1460-2.55086E+00 7.11958E+00 1.16343E-02
 -1      1461-2.67792E+00 7.59737E+00 1.12995E-02
 -1      1462-7.51921E+00 2.54785E+01-2.73109E-03
 -1      1463-7.71226E+00 2.61861E+01-2.42040E-03
 -1      1464-7.42305E+00 2.51263E+01-5.77398E-05
 -1      1465-1.90327E+00 1.77591E+01 1.28472E-02
 -1      1466-3.14523E+00 2.32068E+01 8.63324E-03
 -1      1467-6.19081E+00 2.54325E+01-5.34335E-03
 -1      1468-4.90515E+00 3.03484E+01 3.41796E-03
 -1      1469-1.11935E+00 1.39350E+01 1.61195E-02
 -1      1470-4.74088E+00 1.98981E+01-9.82718E-03
 -1      1471-6.93421E-01 1.15459E+01 1.80753E-02
 -1      1472-4.56458E-01 1.26068E+00-3.39598E-02
 -1      1473 3.18255E-01 2.41389E+00 2.88447E-02
 -1      1474 2.22018E-01 5.34481E-01 3.32376E-02
 -1      1475-1.27764E+00 5.19543E+00-2.61594E-02
 -1      1476-1.84119E-01 8.26832E+00 2.13033E-02
 -1      1477 2.70740E-01 3.78532E+00 2.67411E-02
 -1      1478-1.08257E-01 7.13848E-02-3.66845E-02
 -1      1479-3.74472E+00 1.59736E+01-1.33297E-02
 -1      1480-4.19459E+00 2.74678E+01 5.42150E-03
 -1      1481-7.72057E+00 3.12494E+01-8.90459E-04
 -1      1482-2.32682E+00 1.00567E+01-1.93552E-02
 -1      1483-6.94904E+00 2.82877E+01-3.11966E-03
 -1      1484-2.85360E+00 1.23149E+01-1.69447E-02
 -1      1485 5.40140E-02 6.30773E+00 2.33065E-02
 -1      1486-8.15884E-01 2.93655E+00-3.03835E-02
 -1      1487-1.65967E+00 6.99472E+00-2.35583E-02
 -1      1488 2.23637E-02 2.43807E-03 1.12855E-02
 -1      1489-6.23885E+00 3.27998E+01 9.25033E-04
 -1      1490-5.45186E+00 2.26299E+01-7.54897E-03
 -1      1491-2.49817E+00 2.04417E+01 1.07377E-02
 -1      1492 2.95707E-01 1.32129E+00 3.07485E-02
 -1      1493-2.74620E-01 5.05792E-01-3.73597E-02
 -1      1494-1.90179E-01 2.47064E-01-3.82810E-02
 -1      1495-6.28632E-03 1.57477E-01-2.49959E-03
 -1      1496-7.34081E+00 2.97338E+01-2.06453E-03
 -1      1497-1.62795E+00 1.64550E+01 1.38836E-02
 -1      1498-1.36078E+00 1.51806E+01 1.50305E-02
 -1      1499-2.26732E+00 1.43253E+01-6.15798E-05
 -1      1500-3.48565E+00 2.46144E+01 7.58492E-03
 -1      1501-4.39850E+00 1.85644E+01-1.09954E-02
 -1      1502-5.05053E-01 1.04091E+01 1.91090E-02
 -1      1503-3.29934E-01 9.31580E+00 2.03275E-02
 -1      1504-1.12367E+00 8.63165E+00-7.67134E-04
 -1      1505-6.56814E+00 2.68546E+01-4.22650E-03
 -1      1506 1.51483E-01 5.40609E+00 2.46352E-02
 -1      1507-5.81839E+00 2.40234E+01-6.44647E-03
 -1      1508-1.46284E+00 6.06797E+00-2.49509E-02
 -1      1509 3.04126E-01 3.06653E+00 2.77489E-02
 -1      1510 2.19364E-01 4.56316E+00 2.56562E-02
 -1      1511-3.92518E-01 4.06932E+00-1.64883E-03
 -1      1512-4.56067E+00 2.89092E+01 4.40902E-03
 -1      1513-2.58311E+00 1.11660E+01-1.81501E-02
 -1      1514 3.16551E-01 1.83142E+00 2.98714E-02
 -1      1515-1.51379E-01 2.05950E+00-2.06582E-03
 -1      1516-3.62637E-01 8.45366E-01-3.56583E-02
 -1      1517 2.66069E-01 8.88408E-01 3.21783E-02
 -1      1518-4.88481E-02 7.26678E+00 2.25633E-02
 -1      1519-2.81571E+00 2.18151E+01 9.65449E-03
 -1      1520-2.19372E+00 1.90888E+01 1.17916E-02
 -1      1521-8.97001E-01 1.27225E+01 1.70752E-02
 -1      1522-3.83582E+00 2.60355E+01 6.52941E-03
 -1      1523-5.09241E+00 2.12540E+01-8.70398E-03
 -1      1524-4.06616E+00 1.72555E+01-1.21624E-02
 -1      1525-1.69354E-02 3.69070E-01-2.65703E-03
 -1      1526 1.68755E-01 2.67317E-01 3.44526E-02
 -1      1527-2.93232E-02 2.12231E-03-1.67779E-02
 -1      1528-3.14884E+00 1.34641E+01-1.60241E-02
 -1      1529-3.46283E+00 1.47507E+01-1.47735E-02
 -1      1530-6.86993E-01 2.30621E+00-3.17259E-02
 -1      1531-5.68546E-01 1.74484E+00-3.30809E-02
 -1      1532-9.59960E-01 3.62773E+00-2.90822E-02
 -1      1533-9.40348E-01 7.61258E+00-9.00803E-04
 -1      1534-2.10407E+00 8.98831E+00-2.10672E-02
 -1      1535-5.02788E-01 4.87295E+00-1.39151E-03
 -1      1536-6.28859E+00 3.06943E+01 6.79468E-04
 -1      1537-5.94093E+00 2.93163E+01 6.15555E-04
 -1      1538-4.12402E+00 2.22224E+01 4.93322E-04
 -1      1539-3.78434E+00 2.08476E+01 4.04930E-04
 -1      1540-3.45513E+00 1.94931E+01 3.45571E-04
 -1      1541-5.56696E+00 2.78779E+01 6.11837E-04
 -1      1542-4.83096E+00 2.50234E+01 5.27145E-04
 -1      1543-1.75397E+00 1.19285E+01-1.50152E-04
 -1      1544-2.83243E+00 1.68544E+01 1.75059E-04
 -1      1545-6.16733E-02 1.06127E+00-2.34520E-03
 -1      1546-3.48618E-02 6.74733E-01-2.51171E-03
 -1      1547-4.47332E+00 2.36152E+01 5.26889E-04
 -1      1548-3.13751E+00 1.81612E+01 2.57765E-04
 -1      1549-7.74756E-01 6.64715E+00-9.18860E-04
 -1      1550-5.19590E+00 2.64451E+01 5.97859E-04
 -1      1551-6.29861E-01 5.73186E+00-1.10183E-03
 -1      1552-1.52325E+00 1.07851E+01-3.23810E-04
 -1      1553-2.00071E+00 1.31096E+01-4.40499E-05
 -1      1554-2.54071E+00 1.55753E+01 1.26768E-04
 -1      1555-1.87764E+00 7.96782E+00-2.24066E-02
 -1      1556-1.30922E+00 9.68242E+00-4.05944E-04
 -1      1557-9.93085E-02 1.52378E+00-2.11387E-03
 -1      1558-1.11357E+00 4.38128E+00-2.76528E-02
 -1      1559-2.93133E-01 3.33943E+00-1.51482E-03
 -1      1560-2.15380E-01 2.66566E+00-1.76195E-03
 -1      1561-7.41947E+00 3.24428E+01 3.55260E-04
 -1      1562 9.82090E-02 7.96362E-02 3.17566E-02
 -1      1563-5.34011E+00 3.18668E+01 2.20875E-03
 -1      1564-4.23190E-03 4.59112E-02-2.80703E-03
 -1      1565-6.59032E-02 8.88732E-03-3.73329E-02
 -1      1566 5.99346E-02 1.27399E-02 3.28071E-02
 -1      1567-8.43305E+00 3.23290E+01-1.53632E-04
 -1      1568-5.26301E+00 3.31705E+01 1.46205E-03
 -1      1569-6.60124E+00 3.18102E+01 6.50716E-04
 -1      1570 2.62680E-02-2.49165E-03 2.00514E-02
 -1      1571 3.86400E-02 6.29166E-03 2.72850E-02
 -1      1572 9.95025E-02 3.46854E-02 4.62687E-02
 -1      1573-4.24170E-02 4.13419E-03-2.98363E-02
 -1      1574-2.89052E-02-3.61968E-03-2.22410E-02
 -1      1575-1.06809E-01 2.85001E-02-5.02813E-02
 -1      1576-4.94556E+00 3.37471E+01 1.24934E-03
 -1      1577-5.56155E+00 3.35842E+01 7.77998E-04
 -1      1578-4.75462E+00 3.30191E+01 2.27516E-03
 -1      1579-8.37467E+00 3.28406E+01 5.41393E-04
 -1      1580-8.99098E+00 3.26783E+01 6.78980E-05
 -1      1581-8.79842E+00 3.19513E+01-9.69240E-04
 -1      1582 5.06119E-03-9.26473E-03 3.11179E-03
 -1      1583 1.64932E-02-5.59115E-03 1.21055E-02
 -1      1584 4.17967E-02 6.31694E-03 2.30025E-02
 -1      1585-2.18288E-02-7.51293E-03-1.68828E-02
 -1      1586-8.58692E-03-8.98865E-03-6.88874E-03
 -1      1587-3.04371E-03 5.18670E-04-2.36384E-03
 -1      1588-4.91195E-02 3.93822E-03-2.78512E-02
 -1      1589-6.04947E+00 3.33985E+01 6.30978E-04
 -1      1590-6.66328E+00 3.32370E+01 6.72324E-04
 -1      1591-5.75128E+00 3.29849E+01 1.16410E-03
 -1      1592-7.25362E+00 3.30586E+01 6.83653E-04
 -1      1593-7.86762E+00 3.28974E+01 6.70145E-04
 -1      1594-6.82906E+00 3.26213E+01 6.59582E-04
 -1      1595-7.92586E+00 3.23861E+01 1.31266E-04
 -1      1596 1.30761E-01 6.62175E-02 4.79321E-02
 -1      1597 1.80775E-01 1.33042E-01 5.13787E-02
 -1      1598 8.39332E-02 3.84042E-02 3.47405E-02
 -1      1599 2.34718E-01 2.28372E-01 5.30518E-02
 -1      1600 2.82425E-01 3.42306E-01 5.30587E-02
 -1      1601 1.33757E-01 1.61106E-01 3.35102E-02
 -1      1602 3.26368E-01 4.77251E-01 5.23046E-02
 -1      1603 3.69167E-01 6.34606E-01 5.15261E-02
 -1      1604 1.96763E-01 3.90321E-01 3.39265E-02
 -1      1605 4.08285E-01 8.13417E-01 5.06812E-02
 -1      1606 4.44489E-01 1.01212E+00 4.97426E-02
 -1      1607 2.45585E-01 7.01098E-01 3.28058E-02
 -1      1608 4.75746E-01 1.23077E+00 4.87554E-02
 -1      1609 5.04477E-01 1.46906E+00 4.78184E-02
 -1      1610 2.82729E-01 1.09506E+00 3.14253E-02
 -1      1611 5.30766E-01 1.72662E+00 4.70366E-02
 -1      1612 5.51265E-01 2.00248E+00 4.62164E-02
 -1      1613 3.07876E-01 1.56694E+00 3.03631E-02
 -1      1614 5.67233E-01 2.29654E+00 4.53572E-02
 -1      1615 5.78899E-01 2.60848E+00 4.44555E-02
 -1      1616 3.19506E-01 2.11365E+00 2.94183E-02
 -1      1617 5.86306E-01 2.93781E+00 4.35990E-02
 -1      1618 5.88692E-01 3.28399E+00 4.27154E-02
 -1      1619 3.13354E-01 2.73166E+00 2.83285E-02
 -1      1620 5.85747E-01 3.64657E+00 4.18944E-02
 -1      1621 5.78236E-01 4.02533E+00 4.09892E-02
 -1      1622 2.89738E-01 3.41779E+00 2.73305E-02
 -1      1623 5.65560E-01 4.41762E+00 4.01393E-02
 -1      1624 5.47903E-01 4.82721E+00 3.92559E-02
 -1      1625 2.47408E-01 4.16662E+00 2.62079E-02
 -1      1626 5.26429E-01 5.25222E+00 3.84461E-02
 -1      1627 4.98482E-01 5.69115E+00 3.75763E-02
 -1      1628 1.87828E-01 4.97726E+00 2.51596E-02
 -1      1629 4.61664E-01 6.14552E+00 3.65916E-02
 -1      1630 4.23194E-01 6.61210E+00 3.57303E-02
 -1      1631 1.05357E-01 5.84995E+00 2.39897E-02
 -1      1632 3.83042E-01 7.09520E+00 3.50409E-02
 -1      1633 3.34016E-01 7.58796E+00 3.41588E-02
 -1      1634 4.98591E-03 6.78061E+00 2.30022E-02
 -1      1635 2.76911E-01 8.09224E+00 3.32473E-02
 -1      1636 2.17350E-01 8.60952E+00 3.23764E-02
 -1      1637-1.13911E-01 7.76148E+00 2.19169E-02
 -1      1638 1.54428E-01 9.13681E+00 3.15820E-02
 -1      1639 8.44499E-02 9.67704E+00 3.06980E-02
 -1      1640-2.54643E-01 8.78634E+00 2.08338E-02
 -1      1641 6.29900E-03 1.02272E+01 2.97867E-02
 -1      1642-7.40654E-02 1.07888E+01 2.89788E-02
 -1      1643-4.15030E-01 9.85707E+00 1.97247E-02
 -1      1644-1.59412E-01 1.13607E+01 2.81694E-02
 -1      1645-2.49795E-01 1.19425E+01 2.72987E-02
 -1      1646-5.96827E-01 1.09724E+01 1.86385E-02
 -1      1647-3.43320E-01 1.25341E+01 2.65058E-02
 -1      1648-4.43383E-01 1.31345E+01 2.56718E-02
 -1      1649-7.92922E-01 1.21295E+01 1.75962E-02
 -1      1650-5.46940E-01 1.37440E+01 2.48977E-02
 -1      1651-6.56555E-01 1.43617E+01 2.40138E-02
 -1      1652-1.00597E+00 1.33244E+01 1.66442E-02
 -1      1653-7.70251E-01 1.49876E+01 2.32071E-02
 -1      1654-8.88930E-01 1.56212E+01 2.23469E-02
 -1      1655-1.23792E+00 1.45539E+01 1.55776E-02
 -1      1656-1.01593E+00 1.62612E+01 2.14727E-02
 -1      1657-1.14343E+00 1.69092E+01 2.06580E-02
 -1      1658-1.49229E+00 1.58141E+01 1.44430E-02
 -1      1659-1.27510E+00 1.75641E+01 1.98566E-02
 -1      1660-1.41081E+00 1.82254E+01 1.90286E-02
 -1      1661-1.76365E+00 1.71037E+01 1.33656E-02
 -1      1662-1.55056E+00 1.88929E+01 1.82271E-02
 -1      1663-1.69411E+00 1.95661E+01 1.73676E-02
 -1      1664-2.04668E+00 1.84209E+01 1.23273E-02
 -1      1665-1.84135E+00 2.02450E+01 1.65633E-02
 -1      1666-1.99226E+00 2.09289E+01 1.57481E-02
 -1      1667-2.34425E+00 1.97625E+01 1.12606E-02
 -1      1668-2.14656E+00 2.16178E+01 1.49539E-02
 -1      1669-2.30416E+00 2.23113E+01 1.41002E-02
 -1      1670-2.65535E+00 2.11260E+01 1.02233E-02
 -1      1671-2.46497E+00 2.30091E+01 1.33044E-02
 -1      1672-2.62883E+00 2.37109E+01 1.24677E-02
 -1      1673-2.97904E+00 2.25089E+01 9.15894E-03
 -1      1674-2.79558E+00 2.44164E+01 1.16696E-02
 -1      1675-2.96509E+00 2.51253E+01 1.08480E-02
 -1      1676-3.31416E+00 2.39088E+01 8.10298E-03
 -1      1677-3.13723E+00 2.58373E+01 1.00455E-02
 -1      1678-3.31189E+00 2.65521E+01 9.21988E-03
 -1      1679-3.65958E+00 2.53234E+01 7.06139E-03
 -1      1680-3.48880E+00 2.72695E+01 8.42468E-03
 -1      1681-3.66784E+00 2.79891E+01 7.55879E-03
 -1      1682-4.01419E+00 2.67504E+01 6.00950E-03
 -1      1683-3.84888E+00 2.87107E+01 6.76893E-03
 -1      1684-4.03188E+00 2.94339E+01 5.98505E-03
 -1      1685-4.37679E+00 2.81875E+01 4.90184E-03
 -1      1686-4.20262E+00 3.01543E+01 5.24820E-03
 -1      1687-4.38879E+00 3.08801E+01 4.40871E-03
 -1      1688-4.73222E+00 2.96281E+01 3.94861E-03
 -1      1689-4.60513E+00 3.16397E+01 3.55725E-03
 -1      1690-4.79405E+00 3.23669E+01 2.74617E-03
 -1      1691-5.12196E+00 3.11072E+01 2.82958E-03
 -1      1692-5.30146E+00 3.25185E+01 1.91012E-03
 -1      1693-1.94639E-01 1.18156E-01-5.48216E-02
 -1      1694-1.39709E-01 5.63454E-02-5.19540E-02
 -1      1695-9.18291E-02 3.23398E-02-3.94920E-02
 -1      1696-3.12808E-01 3.11631E-01-5.55414E-02
 -1      1697-2.54702E-01 2.05515E-01-5.60294E-02
 -1      1698-1.48351E-01 1.47626E-01-3.80270E-02
 -1      1699-4.33627E-01 5.86713E-01-5.38295E-02
 -1      1700-3.73082E-01 4.39581E-01-5.48526E-02
 -1      1701-2.31602E-01 3.65989E-01-3.78536E-02
 -1      1702-5.58249E-01 9.40511E-01-5.16706E-02
 -1      1703-4.94923E-01 7.54393E-01-5.26843E-02
 -1      1704-3.17879E-01 6.65670E-01-3.64668E-02
 -1      1705-6.88458E-01 1.36910E+00-4.95283E-02
 -1      1706-6.21773E-01 1.14559E+00-5.05456E-02
 -1      1707-4.08625E-01 1.04362E+00-3.47764E-02
 -1      1708-8.31483E-01 1.86773E+00-4.78230E-02
 -1      1709-7.60294E-01 1.60851E+00-4.88135E-02
 -1      1710-5.11056E-01 1.49394E+00-3.34893E-02
 -1      1711-9.81875E-01 2.43920E+00-4.58564E-02
 -1      1712-9.05854E-01 2.14545E+00-4.68778E-02
 -1      1713-6.26352E-01 2.01682E+00-3.23851E-02
 -1      1714-1.14209E+00 3.07795E+00-4.39341E-02
 -1      1715-1.06075E+00 2.75109E+00-4.49086E-02
 -1      1716-7.49908E-01 2.61303E+00-3.09668E-02
 -1      1717-1.31513E+00 3.77853E+00-4.20432E-02
 -1      1718-1.22780E+00 3.42010E+00-4.30640E-02
 -1      1719-8.86243E-01 3.27423E+00-2.97544E-02
 -1      1720-1.49847E+00 4.54028E+00-4.00810E-02
 -1      1721-1.40493E+00 4.15173E+00-4.10890E-02
 -1      1722-1.03510E+00 3.99696E+00-2.84035E-02
 -1      1723-1.69277E+00 5.36101E+00-3.80834E-02
 -1      1724-1.59286E+00 4.94367E+00-3.90677E-02
 -1      1725-1.19392E+00 4.78113E+00-2.69023E-02
 -1      1726-1.90373E+00 6.23819E+00-3.62665E-02
 -1      1727-1.79717E+00 5.79348E+00-3.72039E-02
 -1      1728-1.36838E+00 5.62484E+00-2.54843E-02
 -1      1729-2.12664E+00 7.16842E+00-3.43326E-02
 -1      1730-2.01322E+00 6.69769E+00-3.53056E-02
 -1      1731-1.55942E+00 6.52482E+00-2.42269E-02
 -1      1732-2.36635E+00 8.14639E+00-3.25697E-02
 -1      1733-2.24604E+00 7.65112E+00-3.34889E-02
 -1      1734-1.76675E+00 7.47519E+00-2.29355E-02
 -1      1735-2.61637E+00 9.17129E+00-3.07101E-02
 -1      1736-2.48930E+00 8.65278E+00-3.16304E-02
 -1      1737-1.98903E+00 8.47231E+00-2.17165E-02
 -1      1738-2.87065E+00 1.02421E+01-2.86719E-02
 -1      1739-2.73702E+00 9.70167E+00-2.96171E-02
 -1      1740-2.21383E+00 9.51701E+00-2.02340E-02
 -1      1741-3.14777E+00 1.13539E+01-2.68767E-02
 -1      1742-3.00759E+00 1.07929E+01-2.77957E-02
 -1      1743-2.45318E+00 1.06063E+01-1.87591E-02
 -1      1744-3.43771E+00 1.25051E+01-2.51045E-02
 -1      1745-3.29120E+00 1.19248E+01-2.60014E-02
 -1      1746-2.71660E+00 1.17357E+01-1.75207E-02
 -1      1747-3.74553E+00 1.36744E+01-2.34926E-02
 -1      1748-3.59278E+00 1.30764E+01-2.44084E-02
 -1      1749-2.99951E+00 1.28853E+01-1.65110E-02
 -1      1750-4.06857E+00 1.49294E+01-2.16681E-02
 -1      1751-3.90984E+00 1.43142E+01-2.26024E-02
 -1      1752-3.30407E+00 1.41028E+01-1.53938E-02
 -1      1753-4.37974E+00 1.61683E+01-1.98347E-02
 -1      1754-4.21565E+00 1.55377E+01-2.07115E-02
 -1      1755-3.60248E+00 1.53585E+01-1.40251E-02
 -1      1756-4.71555E+00 1.74511E+01-1.81046E-02
 -1      1757-4.54640E+00 1.68062E+01-1.89824E-02
 -1      1758-3.90403E+00 1.66110E+01-1.27418E-02
 -1      1759-5.06097E+00 1.87608E+01-1.63853E-02
 -1      1760-4.88713E+00 1.81027E+01-1.72649E-02
 -1      1761-4.23102E+00 1.79067E+01-1.15718E-02
 -1      1762-5.41514E+00 2.00950E+01-1.46583E-02
 -1      1763-5.23704E+00 1.94250E+01-1.55441E-02
 -1      1764-4.56850E+00 1.92283E+01-1.04057E-02
 -1      1765-5.77705E+00 2.14513E+01-1.30025E-02
 -1      1766-5.59525E+00 2.07705E+01-1.38267E-02
 -1      1767-4.91555E+00 2.05734E+01-9.24206E-03
 -1      1768-6.14578E+00 2.28276E+01-1.13063E-02
 -1      1769-5.96063E+00 2.21371E+01-1.21863E-02
 -1      1770-5.27118E+00 2.19395E+01-8.16222E-03
 -1      1771-6.52026E+00 2.42214E+01-9.65502E-03
 -1      1772-6.33239E+00 2.35224E+01-1.04842E-02
 -1      1773-5.63432E+00 2.33246E+01-7.00961E-03
 -1      1774-6.89941E+00 2.56306E+01-7.96524E-03
 -1      1775-6.70933E+00 2.49242E+01-8.84494E-03
 -1      1776-6.00394E+00 2.47261E+01-5.92101E-03
 -1      1777-7.28209E+00 2.70529E+01-6.31256E-03
 -1      1778-7.09036E+00 2.63402E+01-7.15224E-03
 -1      1779-6.37897E+00 2.61420E+01-4.78097E-03
 -1      1780-7.66714E+00 2.84861E+01-4.67553E-03
 -1      1781-7.47441E+00 2.77682E+01-5.49683E-03
 -1      1782-6.75821E+00 2.75699E+01-3.68171E-03
 -1      1783-8.05759E+00 2.99300E+01-3.06598E-03
 -1      1784-7.86442E+00 2.92082E+01-3.89467E-03
 -1      1785-7.14469E+00 2.90098E+01-2.61539E-03
 -1      1786-8.44137E+00 3.14120E+01-1.43491E-03
 -1      1787-8.24842E+00 3.06871E+01-2.23759E-03
 -1      1788-7.53064E+00 3.04908E+01-1.49493E-03
 -1      1789-8.07669E+00 3.17891E+01-5.95858E-04
 -1      1790-2.22655E+00 1.66544E+01 6.92500E-03
 -1      1791-2.37006E+00 1.73038E+01 6.64194E-03
 -1      1792-2.51715E+00 1.79599E+01 6.43098E-03
 -1      1793-2.66762E+00 1.86223E+01 6.14495E-03
 -1      1794-2.98335E+00 1.75045E+01 2.51164E-04
 -1      1795-3.80724E+00 2.34108E+01 4.43948E-03
 -1      1796-3.98079E+00 2.41130E+01 4.17761E-03
 -1      1797-3.46753E+00 2.20186E+01 4.94107E-03
 -1      1798-3.63610E+00 2.27126E+01 4.65121E-03
 -1      1799-4.29756E+00 2.29167E+01 4.89490E-04
 -1      1800-5.88044E+00 2.66500E+01-1.94363E-03
 -1      1801-5.69402E+00 2.59375E+01-2.26565E-03
 -1      1802-5.50901E+00 2.52280E+01-2.52872E-03
 -1      1803-5.32551E+00 2.45219E+01-2.86545E-03
 -1      1804-5.01260E+00 2.57327E+01 5.69040E-04
 -1      1805-5.24990E+00 2.91126E+01 2.42999E-03
 -1      1806-5.42364E+00 2.98316E+01 2.15040E-03
 -1      1807-5.59639E+00 3.05213E+01 1.94095E-03
 -1      1808-6.11442E+00 3.00047E+01 6.55757E-04
 -1      1809-5.81484E+00 3.12800E+01 1.57614E-03
 -1      1810-1.68913E+00 1.41297E+01 7.88239E-03
 -1      1811-1.81673E+00 1.47495E+01 7.60788E-03
 -1      1812-1.56297E+00 1.35187E+01 8.15820E-03
 -1      1813-2.13208E+00 1.37132E+01-3.71394E-05
 -1      1814-1.44436E+00 1.29155E+01 8.36345E-03
 -1      1815-4.09488E+00 1.96956E+01-4.86798E-03
 -1      1816-3.92838E+00 1.90263E+01-5.20412E-03
 -1      1817-4.43553E+00 2.10509E+01-4.27876E-03
 -1      1818-4.26397E+00 2.03706E+01-4.57938E-03
 -1      1819-3.61836E+00 2.01677E+01 3.96305E-04
 -1      1820-1.00898E+00 1.05963E+01 9.26915E-03
 -1      1821-1.11170E+00 1.11614E+01 9.00010E-03
 -1      1822-1.21884E+00 1.17366E+01 8.79309E-03
 -1      1823-1.32859E+00 1.23217E+01 8.52463E-03
 -1      1824-1.63654E+00 1.13519E+01-2.21373E-04
 -1      1825-2.50242E-01 1.15788E+00-1.83815E-02
 -1      1826-2.19458E-01 9.47729E-01-1.90068E-02
 -1      1827-3.25309E-01 1.63154E+00-1.78350E-02
 -1      1828-2.84745E-01 1.38673E+00-1.80013E-02
 -1      1829-7.90145E-02 1.28312E+00-2.23579E-03
 -1      1830 5.93053E-02 2.53725E+00 1.32919E-02
 -1      1831 3.81038E-02 2.86068E+00 1.29960E-02
 -1      1832 9.07454E-02 1.94260E+00 1.37037E-02
 -1      1833 7.67740E-02 2.23117E+00 1.34721E-02
 -1      1834-1.81578E-01 2.35399E+00-1.89116E-03
 -1      1835 1.02349E-01 6.00728E-01 1.51409E-02
 -1      1836 1.07654E-01 7.75972E-01 1.48742E-02
 -1      1837 9.42490E-02 4.46254E-01 1.52686E-02
 -1      1838 8.47271E-02 3.13906E-01 1.57370E-02
 -1      1839-2.47769E-02 5.11620E-01-2.60174E-03
 -1      1840-1.03933E+00 5.89870E+00-1.32066E-02
 -1      1841-9.58401E-01 5.45866E+00-1.35481E-02
 -1      1842-8.82963E-01 5.03276E+00-1.39669E-02
 -1      1843-5.64199E-01 5.29531E+00-1.23246E-03
 -1      1844-8.13207E-01 4.62197E+00-1.44553E-02
 -1      1845-6.48040E-01 8.44897E+00 1.00843E-02
 -1      1846-7.30756E-01 8.96931E+00 9.84970E-03
 -1      1847-5.66505E-01 7.93577E+00 1.02920E-02
 -1      1848-1.02977E+00 8.11610E+00-8.15292E-04
 -1      1849-4.88497E-01 7.43850E+00 1.06372E-02
 -1      1850 1.30035E-02 3.20073E+00 1.29100E-02
 -1      1851-1.71504E-02 3.55703E+00 1.26873E-02
 -1      1852-5.37245E-02 3.92537E+00 1.23248E-02
 -1      1853-9.22373E-02 4.31092E+00 1.20822E-02
 -1      1854-3.40750E-01 3.69673E+00-1.56602E-03
 -1      1855-8.97721E-02 1.98339E-01-2.06226E-02
 -1      1856-6.71626E-02 1.07644E-01-2.01291E-02
 -1      1857-5.19631E-03 9.50887E-02-2.73872E-03
 -1      1858-5.26988E-02 5.60304E-02-1.96678E-02
 -1      1859-6.25711E-02 3.02846E-02-2.70403E-02
 -1      1860-2.16198E-02 1.95159E-02-1.06566E-02
 -1      1861-3.44553E+00 1.70549E+01-6.11063E-03
 -1      1862-3.29053E+00 1.64111E+01-6.46299E-03
 -1      1863-3.13864E+00 1.57743E+01-6.72672E-03
 -1      1864-3.00386E+00 1.51599E+01-7.22071E-03
 -1      1865-2.68482E+00 1.62113E+01 1.86969E-04
 -1      1866-4.87964E+00 2.76728E+01 2.87967E-03
 -1      1867-5.06462E+00 2.83925E+01 2.62696E-03
 -1      1868-4.51445E+00 2.62402E+01 3.44727E-03
 -1      1869-4.69617E+00 2.69552E+01 3.12964E-03
 -1      1870-5.38075E+00 2.71602E+01 5.89329E-04
 -1      1871-7.00381E+00 3.09720E+01-2.35096E-04
 -1      1872-6.81483E+00 3.02136E+01-5.95057E-04
 -1      1873-7.16072E+00 3.15298E+01-5.89515E-05
 -1      1874-6.44477E+00 3.12520E+01 6.63144E-04
 -1      1875-7.57008E+00 3.18458E+01-1.74692E-04
 -1      1876-7.01021E+00 3.21265E+01 4.11605E-04
 -1      1877-2.04785E+00 1.09751E+01-9.37565E-03
 -1      1878-1.92818E+00 1.04169E+01-9.75062E-03
 -1      1879-1.81242E+00 9.86900E+00-1.00552E-02
 -1      1880-1.71009E+00 9.33105E+00-1.06804E-02
 -1      1881-1.41412E+00 1.02285E+01-3.30243E-04
 -1      1882-6.63986E+00 2.95252E+01-8.37627E-04
 -1      1883-6.44532E+00 2.88013E+01-1.15144E-03
 -1      1884-6.25672E+00 2.80829E+01-1.35511E-03
 -1      1885-6.06805E+00 2.73652E+01-1.69047E-03
 -1      1886-5.75337E+00 2.85961E+01 6.28233E-04
 -1      1887-2.29873E+00 1.21213E+01-8.71654E-03
 -1      1888-2.17140E+00 1.15434E+01-9.05512E-03
 -1      1889-2.57026E+00 1.32866E+01-8.19606E-03
 -1      1890-2.42980E+00 1.27086E+01-8.42469E-03
 -1      1891-1.87534E+00 1.25145E+01-1.22659E-04
 -1      1892-2.32374E-01 5.56741E+00 1.15578E-02
 -1      1893-2.92763E-01 6.01487E+00 1.11292E-02
 -1      1894-3.54016E-01 6.47608E+00 1.10091E-02
 -1      1895-4.16453E-01 6.95208E+00 1.09115E-02
 -1      1896-7.00143E-01 6.18277E+00-1.03566E-03
 -1      1897-5.07394E-01 2.79892E+00-1.62765E-02
 -1      1898-4.57349E-01 2.48042E+00-1.66825E-02
 -1      1899-6.18655E-01 3.48167E+00-1.55292E-02
 -1      1900-5.60318E-01 3.13256E+00-1.59545E-02
 -1      1901-2.52374E-01 2.99432E+00-1.66028E-03
 -1      1902-1.21060E+00 6.81990E+00-1.24280E-02
 -1      1903-1.12322E+00 6.35265E+00-1.29083E-02
 -1      1904-1.30405E+00 7.29900E+00-1.21282E-02
 -1      1905-8.55350E-01 7.12352E+00-8.96512E-04
 -1      1906-1.40266E+00 7.78933E+00-1.18022E-02
 -1      1907 1.40636E-02 1.97736E-02 4.99122E-03
 -1      1908 5.35677E-02 3.30483E-02 2.14209E-02
 -1      1909 4.35675E-02 5.98717E-02 1.41645E-02
 -1      1910-6.42011E+00 3.23049E+01 8.68471E-04
 -1      1911-5.78917E+00 3.23332E+01 1.46079E-03
 -1      1912-5.97078E+00 3.18384E+01 1.36700E-03
 -1      1913-5.14366E+00 2.38194E+01-3.06407E-03
 -1      1914-4.96362E+00 2.31207E+01-3.40166E-03
 -1      1915-4.78546E+00 2.24262E+01-3.67759E-03
 -1      1916-4.60942E+00 2.17361E+01-4.03549E-03
 -1      1917-3.13862E+00 2.06444E+01 5.44818E-03
 -1      1918-3.30163E+00 2.13291E+01 5.15091E-03
 -1      1919-2.82146E+00 1.92907E+01 5.92941E-03
 -1      1920-2.97850E+00 1.99649E+01 5.64840E-03
 -1      1921 1.06431E-01 1.41943E+00 1.40673E-02
 -1      1922 1.01493E-01 1.67203E+00 1.39617E-02
 -1      1923 1.10785E-01 9.71346E-01 1.46399E-02
 -1      1924 1.09554E-01 1.18576E+00 1.41979E-02
 -1      1925-1.36319E-01 4.33449E-01-2.02666E-02
 -1      1926-1.11819E-01 3.02333E-01-2.05400E-02
 -1      1927-1.89582E-01 7.56558E-01-1.93346E-02
 -1      1928-1.62598E-01 5.84624E-01-1.99703E-02
 -1      1929-1.06959E-02 2.53465E-01-2.58105E-03
 -1      1930 7.32442E-02 2.07280E-01 1.59407E-02
 -1      1931 5.60753E-02 1.13000E-01 1.50468E-02
 -1      1932-1.94686E+00 1.53776E+01 7.41857E-03
 -1      1933-2.08680E+00 1.60119E+01 7.11811E-03
 -1      1934-2.40221E+00 1.49464E+01 4.37048E-05
 -1      1935-2.71068E+00 1.38910E+01-7.92930E-03
 -1      1936-2.86039E+00 1.45378E+01-7.55465E-03
 -1      1937-4.15655E+00 2.48188E+01 3.93957E-03
 -1      1938-4.33450E+00 2.55279E+01 3.66167E-03
 -1      1939-4.65112E+00 2.43174E+01 5.43023E-04
 -1      1940-3.76457E+00 1.83628E+01-5.49381E-03
 -1      1941-3.60359E+00 1.77056E+01-5.83206E-03
 -1      1942-3.29482E+00 1.88242E+01 3.23301E-04
 -1      1943-8.14152E-01 9.49825E+00 9.77375E-03
 -1      1944-9.10832E-01 1.00415E+01 9.46255E-03
 -1      1945-1.21445E+00 9.15153E+00-6.03630E-04
 -1      1946-1.50445E+00 8.29519E+00-1.15274E-02
 -1      1947-1.60797E+00 8.80930E+00-1.10863E-02
 -1      1948-1.34658E-01 4.71628E+00 1.19275E-02
 -1      1949-1.80948E-01 5.13437E+00 1.16814E-02
 -1      1950-4.45578E-01 4.46360E+00-1.48630E-03
 -1      1951-6.81493E-01 3.84335E+00-1.53359E-02
 -1      1952-7.45396E-01 4.22362E+00-1.48585E-02
 -1      1953-1.23637E-01 1.78263E+00-2.04137E-03
 -1      1954-4.10770E-01 2.18040E+00-1.71147E-02
 -1      1955-3.66578E-01 1.89657E+00-1.75131E-02
 -1      1956-4.69953E-02 8.58142E-01-2.44035E-03
 -1      1957-3.95294E+00 2.15326E+01 4.22469E-04
 -1      1958-1.90332E+00 1.77591E+01-1.28859E-02
 -1      1959-3.14518E+00 2.32069E+01-8.69505E-03
 -1      1960-6.19086E+00 2.54325E+01 5.27074E-03
 -1      1961-4.90518E+00 3.03485E+01-3.50925E-03
 -1      1962-1.11932E+00 1.39351E+01-1.60853E-02
 -1      1963-4.74092E+00 1.98981E+01 9.79291E-03
 -1      1964-6.93444E-01 1.15459E+01-1.81148E-02
 -1      1965-4.56435E-01 1.26073E+00 3.38955E-02
 -1      1966 3.15058E-01 2.41343E+00-2.86229E-02
 -1      1967 2.21949E-01 5.34367E-01-3.32779E-02
 -1      1968-1.26680E+00 5.19965E+00 2.57549E-02
 -1      1969-1.85980E+00 7.96288E+00 2.19367E-02
 -1      1970-9.45383E-01 3.63052E+00 2.84528E-02
 -1      1971-1.08252E-01 7.13962E-02 3.67152E-02
 -1      1972-3.74475E+00 1.59737E+01 1.32943E-02
 -1      1973-4.19456E+00 2.74678E+01-5.51190E-03
 -1      1974-7.72060E+00 3.12495E+01 8.07126E-04
 -1      1975-2.32687E+00 1.00568E+01 1.93840E-02
 -1      1976-6.94900E+00 2.82877E+01 3.05612E-03
 -1      1977-2.85359E+00 1.23148E+01 1.69042E-02
 -1      1978 5.39888E-02 6.30780E+00-2.33492E-02
 -1      1979-3.21339E-01 9.31310E+00-2.05696E-02
 -1      1980 2.15238E-01 4.56680E+00-2.54510E-02
 -1      1981 2.23798E-02 2.43980E-03-1.12509E-02
 -1      1982-6.23886E+00 3.27999E+01-9.83054E-04
 -1      1983-5.45183E+00 2.26299E+01 7.50462E-03
 -1      1984-2.49821E+00 2.04417E+01-1.07475E-02
 -1      1985-6.77683E-01 2.30964E+00 3.11163E-02
 -1      1986 2.95697E-01 1.32122E+00-3.07568E-02
 -1      1987-2.74570E-01 5.05780E-01 3.72931E-02
 -1      1988-1.90231E-01 2.47071E-01 3.83080E-02
 -1      1989-6.26976E-03 1.57407E-01 2.53752E-03
 -1      1990-7.34077E+00 2.97338E+01 1.98313E-03
 -1      1991-1.62794E+00 1.64549E+01-1.39276E-02
 -1      1992-1.36074E+00 1.51806E+01-1.50841E-02
 -1      1993-2.26734E+00 1.43253E+01-7.13400E-06
 -1      1994-3.48565E+00 2.46144E+01-7.61191E-03
 -1      1995-4.97801E-01 1.04101E+01-1.93104E-02
 -1      1996-4.39850E+00 1.85645E+01 1.09461E-02
 -1      1997-6.56808E+00 2.68546E+01 4.12253E-03
 -1      1998-5.81838E+00 2.40235E+01 6.38486E-03
 -1      1999 1.44390E-01 5.40890E+00-2.44117E-02
 -1      2000-1.44909E+00 6.06985E+00 2.44973E-02
 -1      2001-1.65151E+00 6.99207E+00 2.33476E-02
 -1      2002-9.21775E-01 7.60166E+00 4.12145E-04
 -1      2003 2.99901E-01 3.06600E+00-2.75533E-02
 -1      2004 2.66938E-01 3.78478E+00-2.65550E-02
 -1      2005-4.56073E+00 2.89092E+01-4.49868E-03
 -1      2006-2.09270E+00 8.98277E+00 2.07985E-02
 -1      2007-8.05163E-01 2.93745E+00 2.98356E-02
 -1      2008-2.58318E+00 1.11660E+01 1.81062E-02
 -1      2009 3.13259E-01 1.83089E+00-2.96914E-02
 -1      2010-3.62610E-01 8.45411E-01 3.56486E-02
 -1      2011 2.66152E-01 8.88587E-01-3.20412E-02
 -1      2012-5.61857E-01 1.74963E+00 3.26004E-02
 -1      2013-2.81571E+00 2.18152E+01-9.73520E-03
 -1      2014-1.09910E+00 4.38556E+00 2.71079E-02
 -1      2015-2.19371E+00 1.90889E+01-1.18381E-02
 -1      2016-8.97016E-01 1.27225E+01-1.71215E-02
 -1      2017-3.83581E+00 2.60356E+01-6.57756E-03
 -1      2018-5.09230E+00 2.12540E+01 8.60912E-03
 -1      2019-4.06616E+00 1.72555E+01 1.20949E-02
 -1      2020-1.68294E-02 3.69084E-01 2.71483E-03
 -1      2021 1.68732E-01 2.67267E-01-3.44467E-02
 -1      2022-2.92751E-02 2.18868E-03 1.66967E-02
 -1      2023-3.14882E+00 1.34641E+01 1.60090E-02
 -1      2024-3.46282E+00 1.47507E+01 1.47061E-02
 -1      2025-1.10406E+00 8.62049E+00 3.46037E-04
 -1      2026-3.92201E-02 7.26157E+00-2.28272E-02
 -1      2027-6.28862E+00 3.06943E+01-7.68341E-04
 -1      2028-5.94091E+00 2.93163E+01-6.91346E-04
 -1      2029-4.12409E+00 2.22223E+01-4.91792E-04
 -1      2030-3.78431E+00 2.08476E+01-4.69981E-04
 -1      2031-3.45516E+00 1.94931E+01-4.03765E-04
 -1      2032-5.56695E+00 2.78779E+01-6.67918E-04
 -1      2033-4.83095E+00 2.50234E+01-6.41731E-04
 -1      2034-1.75386E+00 1.19285E+01 1.45999E-04
 -1      2035-2.83240E+00 1.68545E+01-2.46114E-04
 -1      2036-1.30546E+00 9.68076E+00 3.13983E-04
 -1      2037-1.49453E-01 2.05972E+00 1.90199E-03
 -1      2038-9.93304E-02 1.52385E+00 2.11066E-03
 -1      2039-6.16749E-02 1.06127E+00 2.35046E-03
 -1      2040-3.48925E-02 6.74754E-01 2.57058E-03
 -1      2041-4.47337E+00 2.36151E+01-5.88503E-04
 -1      2042-2.13388E-01 2.66629E+00 1.70447E-03
 -1      2043-3.13752E+00 1.81612E+01-3.11909E-04
 -1      2044-4.97603E-01 4.87696E+00 1.14319E-03
 -1      2045-3.86712E-01 4.07787E+00 1.31833E-03
 -1      2046-2.92287E-01 3.33989E+00 1.50551E-03
 -1      2047-5.19593E+00 2.64451E+01-6.60541E-04
 -1      2048-6.25290E-01 5.73403E+00 9.73152E-04
 -1      2049-1.52318E+00 1.07851E+01 2.25182E-04
 -1      2050-2.00072E+00 1.31096E+01 3.68303E-05
 -1      2051-2.54073E+00 1.55754E+01-1.57112E-04
 -1      2052-1.67121E-01 8.26350E+00-2.17769E-02
 -1      2053-7.70315E-01 6.64587E+00 8.19165E-04
 -1      2054-7.41949E+00 3.24428E+01-4.45063E-04
 -1      2055 9.82020E-02 7.96266E-02-3.17638E-02
 -1      2056-5.34009E+00 3.18669E+01-2.29843E-03
 -1      2057-4.25750E-03 4.58990E-02 2.80980E-03
 -1      2058-6.60570E-02 8.88875E-03 3.73931E-02
 -1      2059 5.99431E-02 1.27601E-02-3.28139E-02
 -1      2060-8.43305E+00 3.23291E+01 4.38187E-05
 -1      2061-5.26307E+00 3.31705E+01-1.52370E-03
 -1      2062-6.60123E+00 3.18102E+01-7.21698E-04
 -1      2063 3.86397E-02 6.31704E-03-2.72805E-02
 -1      2064 2.62662E-02-2.47824E-03-2.00537E-02
 -1      2065 9.94967E-02 3.47096E-02-4.62761E-02
 -1      2066-2.89917E-02-3.54898E-03 2.20907E-02
 -1      2067-4.25683E-02 4.22779E-03 2.98754E-02
 -1      2068-1.06833E-01 2.84239E-02 5.03472E-02
 -1      2069-5.56161E+00 3.35842E+01-7.96032E-04
 -1      2070-4.94560E+00 3.37471E+01-1.29389E-03
 -1      2071-4.75465E+00 3.30191E+01-2.32346E-03
 -1      2072-8.99097E+00 3.26783E+01-1.89589E-04
 -1      2073-8.37467E+00 3.28407E+01-6.52434E-04
 -1      2074-8.79840E+00 3.19513E+01 8.43971E-04
 -1      2075 1.64647E-02-5.56884E-03-1.20719E-02
 -1      2076 5.06610E-03-9.23090E-03-3.10382E-03
 -1      2077 4.18177E-02 6.33527E-03-2.29650E-02
 -1      2078-8.58701E-03-8.93690E-03 6.91890E-03
 -1      2079-2.20581E-02-7.44158E-03 1.69544E-02
 -1      2080-3.00701E-03 5.51895E-04 2.37669E-03
 -1      2081-4.92002E-02 3.95610E-03 2.78705E-02
 -1      2082-6.66330E+00 3.32371E+01-7.41769E-04
 -1      2083-6.04949E+00 3.33986E+01-7.42881E-04
 -1      2084-5.75130E+00 3.29850E+01-1.23763E-03
 -1      2085-7.86764E+00 3.28974E+01-7.60912E-04
 -1      2086-7.25364E+00 3.30586E+01-7.66009E-04
 -1      2087-6.82908E+00 3.26213E+01-7.40574E-04
 -1      2088-7.92587E+00 3.23861E+01-2.24558E-04
 -1      2089 1.80758E-01 1.33045E-01-5.13714E-02
 -1      2090 1.30750E-01 6.62265E-02-4.79442E-02
 -1      2091 8.39419E-02 3.83924E-02-3.47633E-02
 -1      2092 2.82465E-01 3.42328E-01-5.30750E-02
 -1      2093 2.34714E-01 2.28367E-01-5.30443E-02
 -1      2094 1.33757E-01 1.61078E-01-3.35167E-02
 -1      2095 3.69126E-01 6.34573E-01-5.15261E-02
 -1      2096 3.26416E-01 4.77229E-01-5.23300E-02
 -1      2097 1.96635E-01 3.90225E-01-3.39907E-02
 -1      2098 4.44485E-01 1.01222E+00-4.97419E-02
 -1      2099 4.08313E-01 8.13512E-01-5.05857E-02
 -1      2100 2.45587E-01 7.01120E-01-3.27405E-02
 -1      2101 5.04500E-01 1.46898E+00-4.78502E-02
 -1      2102 4.75779E-01 1.23077E+00-4.87646E-02
 -1      2103 2.82783E-01 1.09509E+00-3.14454E-02
 -1      2104 5.49570E-01 2.00221E+00-4.61076E-02
 -1      2105 5.29162E-01 1.72632E+00-4.69707E-02
 -1      2106 3.06358E-01 1.56670E+00-3.02636E-02
 -1      2107 5.77314E-01 2.60825E+00-4.43388E-02
 -1      2108 5.65689E-01 2.29632E+00-4.52545E-02
 -1      2109 3.16249E-01 2.11320E+00-2.91813E-02
 -1      2110 5.86477E-01 3.28362E+00-4.26096E-02
 -1      2111 5.84315E-01 2.93754E+00-4.34599E-02
 -1      2112 3.09646E-01 2.73118E+00-2.81273E-02
 -1      2113 5.76195E-01 4.02502E+00-4.09225E-02
 -1      2114 5.83811E-01 3.64624E+00-4.17814E-02
 -1      2115 2.85755E-01 3.41726E+00-2.70721E-02
 -1      2116 5.45911E-01 4.82909E+00-3.91690E-02
 -1      2117 5.63591E-01 4.41943E+00-4.00726E-02
 -1      2118 2.43487E-01 4.16808E+00-2.60327E-02
 -1      2119 4.94977E-01 5.69258E+00-3.74354E-02
 -1      2120 5.23050E-01 5.25363E+00-3.83247E-02
 -1      2121 1.82229E-01 4.98056E+00-2.49582E-02
 -1      2122 4.23136E-01 6.61209E+00-3.57478E-02
 -1      2123 4.61726E-01 6.14557E+00-3.65850E-02
 -1      2124 1.01639E-01 5.85142E+00-2.38969E-02
 -1      2125 3.38830E-01 7.58536E+00-3.43146E-02
 -1      2126 3.87637E-01 7.09262E+00-3.51826E-02
 -1      2127 9.66602E-03 6.77811E+00-2.31070E-02
 -1      2128 2.25904E-01 8.60712E+00-3.26041E-02
 -1      2129 2.85265E-01 8.08989E+00-3.34987E-02
 -1      2130-1.00713E-01 7.75642E+00-2.23185E-02
 -1      2131 8.87638E-02 9.67565E+00-3.08529E-02
 -1      2132 1.58659E-01 9.13545E+00-3.17032E-02
 -1      2133-2.41710E-01 8.78255E+00-2.11630E-02
 -1      2134-7.03902E-02 1.07894E+01-2.90809E-02
 -1      2135 9.81148E-03 1.02277E+01-2.99432E-02
 -1      2136-4.07039E-01 9.85625E+00-1.99269E-02
 -1      2137-2.49754E-01 1.19425E+01-2.73207E-02
 -1      2138-1.59392E-01 1.13607E+01-2.81757E-02
 -1      2139-5.93203E-01 1.09730E+01-1.87257E-02
 -1      2140-4.43430E-01 1.31345E+01-2.56868E-02
 -1      2141-3.43294E-01 1.25341E+01-2.65350E-02
 -1      2142-7.92969E-01 1.21295E+01-1.76302E-02
 -1      2143-6.56599E-01 1.43617E+01-2.40398E-02
 -1      2144-5.46974E-01 1.37441E+01-2.48817E-02
 -1      2145-1.00596E+00 1.33244E+01-1.66343E-02
 -1      2146-8.88875E-01 1.56211E+01-2.24112E-02
 -1      2147-7.70219E-01 1.49876E+01-2.32468E-02
 -1      2148-1.23789E+00 1.45539E+01-1.55965E-02
 -1      2149-1.14340E+00 1.69093E+01-2.06974E-02
 -1      2150-1.01594E+00 1.62612E+01-2.15386E-02
 -1      2151-1.49227E+00 1.58141E+01-1.45067E-02
 -1      2152-1.41083E+00 1.82254E+01-1.90549E-02
 -1      2153-1.27508E+00 1.75641E+01-1.98983E-02
 -1      2154-1.76369E+00 1.71036E+01-1.34159E-02
 -1      2155-1.69414E+00 1.95662E+01-1.74083E-02
 -1      2156-1.55056E+00 1.88929E+01-1.82467E-02
 -1      2157-2.04670E+00 1.84209E+01-1.23634E-02
 -1      2158-1.99224E+00 2.09290E+01-1.57538E-02
 -1      2159-1.84139E+00 2.02450E+01-1.66026E-02
 -1      2160-2.34423E+00 1.97625E+01-1.13016E-02
 -1      2161-2.30417E+00 2.23113E+01-1.41527E-02
 -1      2162-2.14650E+00 2.16179E+01-1.49565E-02
 -1      2163-2.65540E+00 2.11260E+01-1.02347E-02
 -1      2164-2.62888E+00 2.37109E+01-1.25312E-02
 -1      2165-2.46500E+00 2.30091E+01-1.33566E-02
 -1      2166-2.97900E+00 2.25089E+01-9.21332E-03
 -1      2167-2.96511E+00 2.51253E+01-1.08858E-02
 -1      2168-2.79562E+00 2.44164E+01-1.17224E-02
 -1      2169-3.31411E+00 2.39088E+01-8.16619E-03
 -1      2170-3.31188E+00 2.65521E+01-9.27618E-03
 -1      2171-3.13723E+00 2.58373E+01-1.00823E-02
 -1      2172-3.65958E+00 2.53235E+01-7.11120E-03
 -1      2173-3.66782E+00 2.79891E+01-7.65040E-03
 -1      2174-3.48878E+00 2.72695E+01-8.50065E-03
 -1      2175-4.01416E+00 2.67505E+01-6.08353E-03
 -1      2176-4.03188E+00 2.94340E+01-6.03622E-03
 -1      2177-3.84891E+00 2.87107E+01-6.85783E-03
 -1      2178-4.37680E+00 2.81875E+01-4.99636E-03
 -1      2179-4.38879E+00 3.08801E+01-4.45063E-03
 -1      2180-4.20265E+00 3.01543E+01-5.28800E-03
 -1      2181-4.73229E+00 2.96281E+01-3.98710E-03
 -1      2182-4.79408E+00 3.23669E+01-2.81381E-03
 -1      2183-4.60517E+00 3.16397E+01-3.61720E-03
 -1      2184-5.12199E+00 3.11072E+01-2.86892E-03
 -1      2185-5.30147E+00 3.25185E+01-1.98768E-03
 -1      2186-1.39686E-01 5.63211E-02 5.20203E-02
 -1      2187-1.94599E-01 1.18142E-01 5.48602E-02
 -1      2188-9.18606E-02 3.22911E-02 3.95085E-02
 -1      2189-2.54668E-01 2.05511E-01 5.60541E-02
 -1      2190-3.12728E-01 3.11682E-01 5.55532E-02
 -1      2191-1.48354E-01 1.47601E-01 3.80605E-02
 -1      2192-3.73023E-01 4.39607E-01 5.48273E-02
 -1      2193-4.33659E-01 5.86671E-01 5.38290E-02
 -1      2194-2.31673E-01 3.65981E-01 3.79208E-02
 -1      2195-4.94968E-01 7.54393E-01 5.26994E-02
 -1      2196-5.58254E-01 9.40537E-01 5.16529E-02
 -1      2197-3.17818E-01 6.65661E-01 3.64255E-02
 -1      2198-6.21771E-01 1.14564E+00 5.05277E-02
 -1      2199-6.88474E-01 1.36913E+00 4.94910E-02
 -1      2200-4.08604E-01 1.04366E+00 3.47646E-02
 -1      2201-7.57229E-01 1.61071E+00 4.85487E-02
 -1      2202-8.28029E-01 1.87013E+00 4.75658E-02
 -1      2203-5.07905E-01 1.49616E+00 3.31529E-02
 -1      2204-9.01289E-01 2.14700E+00 4.66107E-02
 -1      2205-9.77042E-01 2.44092E+00 4.55705E-02
 -1      2206-6.18397E-01 2.02094E+00 3.18787E-02
 -1      2207-1.05547E+00 2.75147E+00 4.46377E-02
 -1      2208-1.13668E+00 3.07834E+00 4.36935E-02
 -1      2209-7.39943E-01 2.61526E+00 3.04701E-02
 -1      2210-1.22068E+00 3.42131E+00 4.27142E-02
 -1      2211-1.30772E+00 3.77987E+00 4.17176E-02
 -1      2212-8.73625E-01 3.27608E+00 2.91123E-02
 -1      2213-1.39780E+00 4.15371E+00 4.07593E-02
 -1      2214-1.49102E+00 4.54244E+00 3.97803E-02
 -1      2215-1.02050E+00 4.00046E+00 2.77542E-02
 -1      2216-1.58750E+00 4.94568E+00 3.88506E-02
 -1      2217-1.68723E+00 5.36315E+00 3.78665E-02
 -1      2218-1.18120E+00 4.78538E+00 2.64377E-02
 -1      2219-1.79027E+00 5.79441E+00 3.69624E-02
 -1      2220-1.89675E+00 6.23911E+00 3.60609E-02
 -1      2221-1.35616E+00 5.62797E+00 2.50790E-02
 -1      2222-2.00918E+00 6.69634E+00 3.51929E-02
 -1      2223-2.12247E+00 7.16708E+00 3.42228E-02
 -1      2224-1.54835E+00 6.52454E+00 2.38972E-02
 -1      2225-2.23712E+00 7.64865E+00 3.32683E-02
 -1      2226-2.35723E+00 8.14389E+00 3.23261E-02
 -1      2227-1.75386E+00 7.47140E+00 2.26309E-02
 -1      2228-2.48368E+00 8.65005E+00 3.14883E-02
 -1      2229-2.61063E+00 9.16849E+00 3.05367E-02
 -1      2230-1.97433E+00 8.46707E+00 2.13590E-02
 -1      2231-2.73711E+00 9.70166E+00 2.95564E-02
 -1      2232-2.87064E+00 1.02421E+01 2.86533E-02
 -1      2233-2.20802E+00 9.51423E+00 2.00394E-02
 -1      2234-3.00752E+00 1.07930E+01 2.77506E-02
 -1      2235-3.14773E+00 1.13540E+01 2.68359E-02
 -1      2236-2.45324E+00 1.06063E+01 1.87313E-02
 -1      2237-3.29115E+00 1.19248E+01 2.59588E-02
 -1      2238-3.43772E+00 1.25050E+01 2.50793E-02
 -1      2239-2.71667E+00 1.17356E+01 1.74993E-02
 -1      2240-3.59278E+00 1.30764E+01 2.43930E-02
 -1      2241-3.74554E+00 1.36744E+01 2.34356E-02
 -1      2242-2.99950E+00 1.28853E+01 1.64863E-02
 -1      2243-3.90980E+00 1.43142E+01 2.25327E-02
 -1      2244-4.06859E+00 1.49294E+01 2.16359E-02
 -1      2245-3.30408E+00 1.41028E+01 1.53408E-02
 -1      2246-4.21572E+00 1.55377E+01 2.06580E-02
 -1      2247-4.37971E+00 1.61683E+01 1.97847E-02
 -1      2248-3.60246E+00 1.53585E+01 1.39759E-02
 -1      2249-4.54638E+00 1.68062E+01 1.89450E-02
 -1      2250-4.71556E+00 1.74511E+01 1.80526E-02
 -1      2251-3.90405E+00 1.66110E+01 1.27171E-02
 -1      2252-4.88710E+00 1.81028E+01 1.72134E-02
 -1      2253-5.06096E+00 1.87608E+01 1.63183E-02
 -1      2254-4.23102E+00 1.79068E+01 1.15336E-02
 -1      2255-5.23704E+00 1.94250E+01 1.54829E-02
 -1      2256-5.41510E+00 2.00950E+01 1.46298E-02
 -1      2257-4.56851E+00 1.92283E+01 1.03575E-02
 -1      2258-5.59517E+00 2.07706E+01 1.38034E-02
 -1      2259-5.77706E+00 2.14513E+01 1.29187E-02
 -1      2260-4.91556E+00 2.05734E+01 9.22544E-03
 -1      2261-5.96067E+00 2.21371E+01 1.20946E-02
 -1      2262-6.14581E+00 2.28276E+01 1.12306E-02
 -1      2263-5.27113E+00 2.19396E+01 8.06887E-03
 -1      2264-6.33243E+00 2.35224E+01 1.04057E-02
 -1      2265-6.52031E+00 2.42214E+01 9.56014E-03
 -1      2266-5.63428E+00 2.33246E+01 6.93116E-03
 -1      2267-6.70936E+00 2.49242E+01 8.73295E-03
 -1      2268-6.89941E+00 2.56306E+01 7.88993E-03
 -1      2269-6.00393E+00 2.47262E+01 5.82385E-03
 -1      2270-7.09039E+00 2.63402E+01 7.08457E-03
 -1      2271-7.28211E+00 2.70529E+01 6.21947E-03
 -1      2272-6.37896E+00 2.61420E+01 4.72564E-03
 -1      2273-7.47444E+00 2.77682E+01 5.41702E-03
 -1      2274-7.66717E+00 2.84860E+01 4.59091E-03
 -1      2275-6.75816E+00 2.75700E+01 3.59357E-03
 -1      2276-7.86444E+00 2.92082E+01 3.79382E-03
 -1      2277-8.05762E+00 2.99300E+01 2.97241E-03
 -1      2278-7.14465E+00 2.90098E+01 2.52853E-03
 -1      2279-8.24845E+00 3.06871E+01 2.12447E-03
 -1      2280-8.44136E+00 3.14120E+01 1.31971E-03
 -1      2281-7.53062E+00 3.04909E+01 1.39507E-03
 -1      2282-8.07670E+00 3.17891E+01 5.03618E-04
 -1      2283-2.37009E+00 1.73038E+01-6.68814E-03
 -1      2284-2.22659E+00 1.66544E+01-6.93764E-03
 -1      2285-2.66764E+00 1.86223E+01-6.19443E-03
 -1      2286-2.51716E+00 1.79599E+01-6.46834E-03
 -1      2287-2.98333E+00 1.75046E+01-2.93634E-04
 -1      2288-3.98079E+00 2.41130E+01-4.21503E-03
 -1      2289-3.80721E+00 2.34109E+01-4.50817E-03
 -1      2290-3.63607E+00 2.27126E+01-4.72382E-03
 -1      2291-3.46749E+00 2.20186E+01-5.02193E-03
 -1      2292-4.29760E+00 2.29166E+01-5.58201E-04
 -1      2293-5.69404E+00 2.59375E+01 2.20216E-03
 -1      2294-5.88044E+00 2.66500E+01 1.86625E-03
 -1      2295-5.32550E+00 2.45219E+01 2.76998E-03
 -1      2296-5.50902E+00 2.52281E+01 2.45100E-03
 -1      2297-5.01260E+00 2.57327E+01-6.45924E-04
 -1      2298-5.42365E+00 2.98316E+01-2.22913E-03
 -1      2299-5.24998E+00 2.91126E+01-2.48188E-03
 -1      2300-6.11443E+00 3.00047E+01-7.56497E-04
 -1      2301-5.59641E+00 3.05213E+01-2.02125E-03
 -1      2302-5.81484E+00 3.12800E+01-1.64661E-03
 -1      2303-1.81672E+00 1.47495E+01-7.63788E-03
 -1      2304-1.68906E+00 1.41297E+01-7.91211E-03
 -1      2305-2.13208E+00 1.37132E+01 9.60471E-06
 -1      2306-1.56296E+00 1.35187E+01-8.16322E-03
 -1      2307-1.44438E+00 1.29155E+01-8.38041E-03
 -1      2308-3.92840E+00 1.90263E+01 5.16527E-03
 -1      2309-4.09489E+00 1.96956E+01 4.82380E-03
 -1      2310-4.26396E+00 2.03706E+01 4.56609E-03
 -1      2311-4.43552E+00 2.10508E+01 4.20646E-03
 -1      2312-3.61835E+00 2.01677E+01-4.18920E-04
 -1      2313-1.11173E+00 1.11615E+01-9.00676E-03
 -1      2314-1.00536E+00 1.05969E+01-9.36593E-03
 -1      2315-1.32860E+00 1.23216E+01-8.58362E-03
 -1      2316-1.21885E+00 1.17366E+01-8.82086E-03
 -1      2317-1.63648E+00 1.13519E+01 1.98937E-04
 -1      2318-2.19432E-01 9.47762E-01 1.90061E-02
 -1      2319-2.50229E-01 1.15791E+00 1.83628E-02
 -1      2320-2.84726E-01 1.38677E+00 1.79503E-02
 -1      2321-3.21976E-01 1.63397E+00 1.75411E-02
 -1      2322-7.90169E-02 1.28316E+00 2.22730E-03
 -1      2323 3.69723E-02 2.86073E+00-1.30107E-02
 -1      2324 5.85527E-02 2.53737E+00-1.32301E-02
 -1      2325 7.61954E-02 2.23111E+00-1.34116E-02
 -1      2326 8.98976E-02 1.94251E+00-1.36201E-02
 -1      2327-1.79645E-01 2.35440E+00 1.79653E-03
 -1      2328 1.07668E-01 7.76058E-01-1.48178E-02
 -1      2329 1.02301E-01 6.00727E-01-1.51074E-02
 -1      2330 8.47118E-02 3.13898E-01-1.57120E-02
 -1      2331 9.41956E-02 4.46177E-01-1.52717E-02
 -1      2332-2.47481E-02 5.11717E-01 2.62104E-03
 -1      2333-9.50716E-01 5.46190E+00 1.32814E-02
 -1      2334-1.03038E+00 5.90075E+00 1.28794E-02
 -1      2335-8.03327E-01 4.62618E+00 1.40753E-02
 -1      2336-8.75005E-01 5.03687E+00 1.36415E-02
 -1      2337-5.59308E-01 5.29843E+00 1.05455E-03
 -1      2338-1.29061E+00 7.29226E+00 1.18295E-02
 -1      2339-1.38440E+00 7.78140E+00 1.13546E-02
 -1      2340-1.01070E+00 8.10506E+00 3.69564E-04
 -1      2341-1.48568E+00 8.28718E+00 1.10506E-02
 -1      2342-1.59233E+00 8.80091E+00 1.07448E-02
 -1      2343-5.54350E-01 3.13339E+00 1.55843E-02
 -1      2344-6.11031E-01 3.48332E+00 1.51936E-02
 -1      2345-6.71343E-01 3.84899E+00 1.48550E-02
 -1      2346-7.35425E-01 4.23007E+00 1.44155E-02
 -1      2347-3.37494E-01 3.70106E+00 1.40674E-03
 -1      2348-6.71600E-02 1.07613E-01 2.01801E-02
 -1      2349-8.97587E-02 1.98309E-01 2.06341E-02
 -1      2350-5.27295E-02 5.60387E-02 1.96794E-02
 -1      2351-5.20398E-03 9.50238E-02 2.76759E-03
 -1      2352-2.16160E-02 1.95364E-02 1.06395E-02
 -1      2353-6.25992E-02 3.02998E-02 2.70088E-02
 -1      2354-3.29054E+00 1.64111E+01 6.43361E-03
 -1      2355-3.44556E+00 1.70549E+01 6.07208E-03
 -1      2356-3.00384E+00 1.51600E+01 7.16694E-03
 -1      2357-3.13864E+00 1.57744E+01 6.70911E-03
 -1      2358-2.68481E+00 1.62113E+01-2.02975E-04
 -1      2359-5.06463E+00 2.83925E+01-2.70571E-03
 -1      2360-4.87964E+00 2.76727E+01-2.96492E-03
 -1      2361-4.69615E+00 2.69552E+01-3.21770E-03
 -1      2362-4.51442E+00 2.62402E+01-3.51851E-03
 -1      2363-5.38076E+00 2.71602E+01-6.69890E-04
 -1      2364-6.81479E+00 3.02136E+01 4.91776E-04
 -1      2365-7.00383E+00 3.09721E+01 1.86903E-04
 -1      2366-6.44476E+00 3.12520E+01-7.14654E-04
 -1      2367-7.16074E+00 3.15299E+01-1.31075E-05
 -1      2368-7.57011E+00 3.18459E+01 8.64551E-05
 -1      2369-7.01022E+00 3.21265E+01-4.99124E-04
 -1      2370-1.70255E+00 9.32744E+00 1.04450E-02
 -1      2371-1.81047E+00 9.86821E+00 1.00011E-02
 -1      2372-1.92821E+00 1.04168E+01 9.75647E-03
 -1      2373-2.04789E+00 1.09751E+01 9.33698E-03
 -1      2374-1.41218E+00 1.02277E+01 2.96842E-04
 -1      2375-6.44528E+00 2.88013E+01 1.05125E-03
 -1      2376-6.63985E+00 2.95252E+01 7.54521E-04
 -1      2377-6.06803E+00 2.73652E+01 1.60959E-03
 -1      2378-6.25669E+00 2.80829E+01 1.29625E-03
 -1      2379-5.75339E+00 2.85961E+01-7.21411E-04
 -1      2380-2.17144E+00 1.15434E+01 9.02831E-03
 -1      2381-2.29881E+00 1.21213E+01 8.64668E-03
 -1      2382-2.42978E+00 1.27086E+01 8.36652E-03
 -1      2383-2.57024E+00 1.32867E+01 8.18004E-03
 -1      2384-1.87532E+00 1.25146E+01 8.67662E-05
 -1      2385-2.90535E-01 6.01596E+00-1.12912E-02
 -1      2386-2.33855E-01 5.56993E+00-1.15119E-02
 -1      2387-4.09353E-01 6.94888E+00-1.11007E-02
 -1      2388-3.51767E-01 6.47548E+00-1.11109E-02
 -1      2389-6.95642E-01 6.18326E+00 8.63345E-04
 -1      2390-9.05292E-01 1.00412E+01-9.58341E-03
 -1      2391-8.07920E-01 9.49606E+00-9.95204E-03
 -1      2392-1.20256E+00 9.14503E+00 3.01553E-04
 -1      2393-7.16695E-01 8.96232E+00-1.01881E-02
 -1      2394-6.29793E-01 8.44098E+00-1.05323E-02
 -1      2395-1.81790E-01 5.13787E+00-1.16815E-02
 -1      2396-1.34259E-01 4.72015E+00-1.19470E-02
 -1      2397-9.12262E-02 4.31715E+00-1.21354E-02
 -1      2398-5.27238E-02 3.92937E+00-1.24011E-02
 -1      2399-4.40078E-01 4.46998E+00 1.25280E-03
 -1      2400 1.40589E-02 1.97723E-02-4.98652E-03
 -1      2401 4.35586E-02 5.98713E-02-1.41567E-02
 -1      2402 5.35813E-02 3.30413E-02-2.14121E-02
 -1      2403-6.42011E+00 3.23049E+01-9.39737E-04
 -1      2404-5.78917E+00 3.23333E+01-1.53963E-03
 -1      2405-5.97079E+00 3.18384E+01-1.44005E-03
 -1      2406-4.96359E+00 2.31207E+01 3.33901E-03
 -1      2407-5.14365E+00 2.38194E+01 3.04016E-03
 -1      2408-4.60939E+00 2.17362E+01 3.94469E-03
 -1      2409-4.78544E+00 2.24262E+01 3.60893E-03
 -1      2410-3.30168E+00 2.13292E+01-5.22125E-03
 -1      2411-3.13862E+00 2.06445E+01-5.46410E-03
 -1      2412-2.97853E+00 1.99649E+01-5.67813E-03
 -1      2413-2.82146E+00 1.92908E+01-5.98191E-03
 -1      2414-4.51629E-01 2.48257E+00 1.63710E-02
 -1      2415-5.01298E-01 2.79973E+00 1.59503E-02
 -1      2416-3.62158E-01 1.89917E+00 1.72528E-02
 -1      2417-4.05287E-01 2.18224E+00 1.67399E-02
 -1      2418 9.99131E-02 1.67185E+00-1.38418E-02
 -1      2419 1.06436E-01 1.41942E+00-1.40596E-02
 -1      2420 1.09632E-01 1.18570E+00-1.42461E-02
 -1      2421 1.10813E-01 9.71446E-01-1.46018E-02
 -1      2422-1.11821E-01 3.02360E-01 2.05626E-02
 -1      2423-1.36321E-01 4.33526E-01 2.02970E-02
 -1      2424-1.62547E-01 5.84632E-01 1.98998E-02
 -1      2425-1.89532E-01 7.56570E-01 1.93509E-02
 -1      2426-1.06544E-02 2.53466E-01 2.62286E-03
 -1      2427 7.32559E-02 2.07239E-01-1.59335E-02
 -1      2428 5.60721E-02 1.12996E-01-1.50175E-02
 -1      2429-2.08679E+00 1.60119E+01-7.15694E-03
 -1      2430-1.94684E+00 1.53776E+01-7.45793E-03
 -1      2431-2.40222E+00 1.49464E+01-8.42424E-05
 -1      2432-2.86038E+00 1.45378E+01 7.49891E-03
 -1      2433-2.71068E+00 1.38910E+01 7.89678E-03
 -1      2434-4.33452E+00 2.55280E+01-3.73485E-03
 -1      2435-4.15658E+00 2.48188E+01-3.98973E-03
 -1      2436-4.65117E+00 2.43174E+01-5.87029E-04
 -1      2437-3.60359E+00 1.77056E+01 5.80137E-03
 -1      2438-3.76459E+00 1.83628E+01 5.45287E-03
 -1      2439-3.29483E+00 1.88242E+01-3.63486E-04
 -1      2440-1.11395E+00 6.35311E+00 1.25546E-02
 -1      2441-1.20428E+00 6.81796E+00 1.22679E-02
 -1      2442-8.44031E-01 7.11754E+00 6.12194E-04
 -1      2443-5.48774E-01 7.92787E+00-1.07721E-02
 -1      2444-4.74555E-01 7.43047E+00-1.10228E-02
 -1      2445-1.85116E-02 3.55704E+00-1.26003E-02
 -1      2446 1.13615E-02 3.20069E+00-1.28356E-02
 -1      2447-2.50925E-01 2.99487E+00 1.56829E-03
 -1      2448-1.22766E-01 1.78274E+00 1.98889E-03
 -1      2449-4.70028E-02 8.58159E-01 2.44520E-03
 -1      2450-3.95293E+00 2.15326E+01-5.13828E-04
 -1      2451-1.54262E-02 1.20756E-01 2.49963E-04
 -1      2452-6.55527E+00 3.12847E+01-8.72404E-05
 -1      2453-5.75585E+00 2.85994E+01-2.98018E-05
 -1      2454-2.89721E-02 5.46341E-01 7.24681E-05
 -1      2455-2.57618E-01 3.02334E+00 1.04976E-04
 -1      2456-4.65464E+00 2.43237E+01-6.43030E-05
 -1      2457-3.95736E+00 2.15409E+01 3.86026E-05
 -1      2458-3.30012E+00 1.88345E+01-4.99357E-06
 -1      2459-2.69085E+00 1.62238E+01-5.34879E-05
 -1      2460-1.88232E+00 1.25303E+01 4.52089E-05
 -1      2461-7.03239E-01 6.20643E+00 9.77093E-05
 -1      2462-1.28618E-01 1.81396E+00-5.77217E-05
 -1      2463-1.42188E+00 1.02467E+01-8.42403E-05
 -1      2464-4.46994E-01 4.49581E+00-8.12154E-06
 -1      2465-1.02678E+00 8.12414E+00 3.33951E-05
 -1      2466-2.03951E+00 1.43906E+01-4.00078E-04
 -1      2467-4.93065E+00 2.65180E+01-2.52516E-04
 -1      2468 1.03358E-02 1.09941E+00-5.53171E-04
 -1      2469-5.76543E+00 3.23624E+01 5.38939E-04
 -1      2470 5.08281E-02 5.33943E-02 7.91798E-03
 -1      2471-5.72441E+00 3.24163E+01-6.48595E-04
 -1      2472-5.74981E-02 4.73253E-02-9.99809E-03
 -1      2473-7.13584E-01 3.68116E+00-5.50861E-03
 -1      2474 1.17219E-01 2.41619E+00 4.97664E-03
 -1      2475-5.00708E+00 2.27473E+01-1.37076E-03
 -1      2476-3.59592E+00 2.31005E+01-1.66630E-03
 -1      2477-3.65074E+00 1.73618E+01 2.20548E-03
 -1      2478-4.30941E+00 2.00106E+01 1.72987E-03
 -1      2479-2.93704E+00 2.03434E+01 1.97929E-03
 -1      2480-2.32740E+00 1.76702E+01 2.36845E-03
 -1      2481-4.89763E-01 2.35214E+00 6.00295E-03
 -1      2482-1.06575E+00 1.14850E+01 3.24407E-03
 -1      2483-1.74902E+00 9.06392E+00-3.91314E-03
 -1      2484-3.66541E-01 7.22251E+00-4.04993E-03
 -1      2485-2.22187E+00 1.12527E+01 3.36177E-03
 -1      2486-9.98657E-01 5.25854E+00 4.89720E-03
 -1      2487 2.64069E-02 3.77555E+00-4.65322E-03
 -1      2488-6.79932E-01 9.26226E+00-3.63227E-03
 -1      2489-1.35966E-01 5.38690E+00 4.28820E-03
 -1      2490-1.34372E+00 7.05831E+00-4.46792E-03
 -1      2491 5.02239E-02 5.22158E-02-8.00131E-03
 -1      2492-7.64373E+00 3.19197E+01-8.77286E-05
 -1      2493-6.19247E+00 2.70898E+01-8.46565E-04
 -1      2494-3.38524E-01 1.33701E+00-7.45061E-03
 -1      2495 9.54399E-02 2.95214E-01 6.02987E-03
 -1      2496-5.37492E+00 3.02003E+01 6.99190E-04
 -1      2497-5.84403E-02 4.56942E-02 1.07002E-02
 -1      2498-5.75485E+00 2.53964E+01-1.12513E-03
 -1      2499-2.50317E-01 8.40578E-01-7.97497E-03
 -1      2500-7.71142E+00 3.19370E+01 3.04450E-05
 -1      2501-2.76865E+00 1.34794E+01-3.38180E-03
 -1      2502-3.13984E+00 1.49185E+01-2.90938E-03
 -1      2503-1.36238E-01 3.00563E-01 8.54441E-03
 -1      2504-7.04270E+00 2.96932E+01-3.02600E-04
 -1      2505-5.64539E+00 3.00586E+01-6.99200E-04
 -1      2506-1.72330E+00 1.54096E+01 3.74693E-03
 -1      2507-1.36007E+00 1.36081E+01 4.03455E-03
 -1      2508-4.61222E+00 2.77087E+01 1.40543E-03
 -1      2509-6.32144E+00 2.72663E+01 8.94746E-04
 -1      2510-5.77821E+00 2.52005E+01 1.33436E-03
 -1      2511-4.08806E+00 2.56325E+01 1.76081E-03
 -1      2512 1.87813E-01 1.44551E+00 7.46789E-03
 -1      2513 1.68127E-01 8.21020E-01 7.76971E-03
 -1      2514-1.38987E+00 6.82155E+00 6.13905E-03
 -1      2515-2.13576E+00 1.73846E+01-3.41698E-03
 -1      2516-5.22436E+00 2.30474E+01 1.82325E-03
 -1      2517-3.54638E+00 2.34686E+01 2.21935E-03
 -1      2518-2.88582E+00 2.07008E+01-2.79786E-03
 -1      2519-4.51878E+00 2.03031E+01-2.49401E-03
 -1      2520-3.85076E+00 1.76451E+01-3.06599E-03
 -1      2521 1.68122E-01 2.57133E+00-7.12212E-03
 -1      2522-2.39053E+00 1.15035E+01-4.69915E-03
 -1      2523-7.52970E-01 3.49948E+00 7.59562E-03
 -1      2524-7.79865E-02 5.60816E+00-6.12662E-03
 -1      2525-5.72355E-01 2.49134E+00-8.25210E-03
 -1      2526-1.00840E+00 1.17842E+01-4.57010E-03
 -1      2527-2.48692E-01 7.01021E+00 5.63747E-03
 -1      2528 1.09294E-01 3.60461E+00 6.69097E-03
 -1      2529-1.11876E+00 5.45140E+00-6.77101E-03
 -1      2530-6.20972E-01 9.54229E+00 5.10487E-03
 -1      2531-1.90560E+00 9.29816E+00 5.36219E-03
 -1      2532-2.80222E+00 1.33017E+01 3.96190E-03
 -1      2533-3.73745E-01 1.39798E+00 8.88312E-03
 -1      2534-2.58813E-01 7.91454E-01 9.41354E-03
 -1      2535 1.18355E-01 3.41719E-01-7.98035E-03
 -1      2536-1.56429E-01 3.28581E-01-9.84321E-03
 -1      2537-1.68448E+00 1.56405E+01-4.55195E-03
 -1      2538-1.13574E+00 1.35397E+01-6.51994E-03
 -1      2539-4.57942E+00 2.79741E+01-1.68936E-03
 -1      2540-3.93559E+00 2.54180E+01-2.25531E-03
 -1      2541-3.26147E+00 1.51381E+01 3.83933E-03
 -1      2542 1.84972E-01 7.61526E-01-9.74573E-03
 -1      2543 2.17242E-01 1.52873E+00-9.17588E-03
 -1      2544-6.95493E+00 2.90375E+01 7.94013E-04
 -1      2545-1.03875E+00 4.59632E+00-9.62885E-03
 -1      2546-5.00282E+00 2.16102E+01 2.89846E-03
 -1      2547-2.29746E+00 1.87569E+01-4.27908E-03
 -1      2548-3.06485E+00 2.20898E+01 3.31830E-03
 -1      2549-3.65945E+00 1.63050E+01-4.59333E-03
 -1      2550-5.22652E-01 1.89866E+00-1.15974E-02
 -1      2551 1.25676E-01 4.39028E+00 8.91906E-03
 -1      2552-9.71233E-01 4.24331E+00 9.83415E-03
 -1      2553 9.46062E-02 4.75671E+00-8.76311E-03
 -1      2554-1.78641E+00 8.22738E+00 7.70232E-03
 -1      2555-3.50821E-01 8.48753E+00 7.31198E-03
 -1      2556-6.89898E-01 1.06473E+01-6.61508E-03
 -1      2557-2.24972E+00 1.03429E+01-6.80086E-03
 -1      2558-7.17305E+00 3.05276E+01 3.84707E-04
 -1      2559-4.33485E+00 1.89251E+01-3.91967E-03
 -1      2560-2.37615E+00 1.91086E+01 4.14600E-03
 -1      2561-4.22281E+00 1.85611E+01 3.86211E-03
 -1      2562-3.11623E-01 8.21657E+00-7.47026E-03
 -1      2563-1.45348E+00 8.04979E+00-5.84360E-03
 -1      2564-1.88085E+00 7.97843E+00-5.53582E-03
 -1      2565-2.30913E+00 7.90381E+00-2.47327E-02
 -1      2566-1.60549E+00 7.51039E+00-1.21686E-02
 -1      2567-2.02448E+00 7.44597E+00-1.18258E-02
 -1      2568-1.18938E+00 7.58297E+00-1.15485E-03
 -1      2569-2.25548E+00 8.43852E+00-1.11485E-02
 -1      2570-1.81635E+00 8.51103E+00-1.14304E-02
 -1      2571-1.37986E+00 8.59040E+00-1.06714E-03
 -1      2572-4.95318E+00 3.24110E+01 4.66724E-04
 -1      2573-4.80726E+00 3.18501E+01 5.37863E-04
 -1      2574-4.93258E+00 3.24380E+01-5.36503E-04
 -1      2575-4.78667E+00 3.18771E+01-6.38018E-04
 -1      2576-5.74493E+00 3.23896E+01-4.29987E-05
 -1      2577-6.02748E+00 3.15279E+01 8.91299E-04
 -1      2578-6.18363E+00 3.20863E+01 7.68359E-04
 -1      2579-7.12223E+00 3.18652E+01 1.14458E-04
 -1      2580-6.70448E+00 3.21409E+01 2.16689E-04
 -1      2581-6.96546E+00 3.13072E+01-8.00606E-06
 -1      2582 2.71041E-02 5.16281E-02 6.95000E-03
 -1      2583 2.65465E-02 8.29775E-02 1.56774E-03
 -1      2584-9.73650E-03 9.00256E-02-2.09221E-03
 -1      2585-3.54820E-02 4.81418E-02-1.07388E-02
 -1      2586-4.39067E-02 7.94394E-02-2.99631E-03
 -1      2587-3.96942E-03 4.48660E-02-1.18129E-03
 -1      2588 9.12537E-02 1.09274E-01-5.47647E-04
 -1      2589 1.07654E-01 8.38779E-02 7.63923E-03
 -1      2590 1.07113E-01 8.31930E-02-7.74103E-03
 -1      2591 5.00235E-02 5.52954E-02-9.06283E-05
 -1      2592 2.64402E-02 8.19266E-02-1.83595E-03
 -1      2593-6.42816E+00 2.38739E+01-7.52895E-03
 -1      2594-6.01656E+00 2.32358E+01-3.76328E-03
 -1      2595-5.41110E+00 2.33846E+01-3.62321E-03
 -1      2596-5.78740E+00 2.47087E+01-3.24050E-03
 -1      2597-5.37774E+00 2.40651E+01-1.26369E-03
 -1      2598-6.39869E+00 2.45563E+01-3.36049E-03
 -1      2599-4.83189E+00 2.35325E+01-2.72133E-04
 -1      2600-5.84463E+00 2.40234E+01-1.63900E-03
 -1      2601-5.20228E+00 2.48595E+01-3.39121E-04
 -1      2602-5.23722E+00 2.41747E+01-1.50911E-03
 -1      2603 1.16423E-01 1.69262E-01-5.02663E-04
 -1      2604 1.45066E-01 1.33437E-01-8.53187E-03
 -1      2605-1.22364E-02 1.47176E-01-2.03315E-03
 -1      2606-4.76887E-02 9.37857E-02-1.13987E-02
 -1      2607-7.19081E+00 2.75293E+01-2.08084E-03
 -1      2608-6.57011E+00 2.76883E+01-1.93246E-03
 -1      2609-7.57204E+00 2.81281E+01-3.80367E-03
 -1      2610-7.62000E+00 2.88288E+01-1.37791E-03
 -1      2611-6.99644E+00 2.89900E+01-1.36689E-03
 -1      2612-6.61612E+00 2.83882E+01-5.57723E-04
 -1      2613-5.97481E+00 2.78431E+01-1.38893E-04
 -1      2614-6.35289E+00 2.84441E+01-6.46460E-04
 -1      2615-6.39779E+00 2.91460E+01-1.26488E-04
 -1      2616 4.96737E-01 2.38922E+00-7.20862E-03
 -1      2617 9.39925E-03 2.17650E+00-1.60791E-03
 -1      2618 3.18521E-01 2.00227E+00 3.74859E-06
 -1      2619 4.87903E-01 1.85589E+00-8.38689E-03
 -1      2620 5.22206E-02 1.66925E+00-2.02906E-03
 -1      2621 2.01199E-01 2.01967E+00-8.00476E-03
 -1      2622 2.05278E-03 2.31160E+00-6.12063E-03
 -1      2623-1.40225E-01 1.94211E+00 1.08739E-03
 -1      2624 4.86408E-02 1.78673E+00-7.14230E-03
 -1      2625 4.92583E-01 2.23400E+00-1.72710E-02
 -1      2626 4.79368E-01 1.71688E+00-1.90895E-02
 -1      2627 2.48444E-01 2.19190E+00-1.66445E-02
 -1      2628 2.63548E-01 1.67886E+00-1.84317E-02
 -1      2629 1.45605E-01 1.34283E-01 8.59555E-03
 -1      2630 3.72152E-02 9.89465E-02 7.61768E-03
 -1      2631-5.93740E+00 2.43744E+01-3.51306E-05
 -1      2632-5.75273E+00 2.36741E+01-4.03532E-05
 -1      2633-4.74334E+00 2.46745E+01 2.50811E-04
 -1      2634-4.56469E+00 2.39707E+01 2.35625E-04
 -1      2635-5.84863E+00 2.89583E+01 3.19247E-04
 -1      2636-6.49145E+00 2.95054E+01-3.43225E-04
 -1      2637-5.66185E+00 2.82393E+01 2.89128E-04
 -1      2638-5.38045E-01 2.98509E+00-8.12815E-03
 -1      2639-2.76733E-01 3.18623E+00-9.01776E-04
 -1      2640-7.69377E-01 3.30272E+00-1.57832E-02
 -1      2641-4.99452E-01 3.51228E+00-6.55857E-03
 -1      2642-4.75566E-01 3.34614E+00-1.57758E-03
 -1      2643-4.42978E-01 2.90127E+00-8.26675E-03
 -1      2644-6.90891E-01 2.71248E+00-1.81493E-02
 -1      2645-4.21520E-01 2.75090E+00-2.18446E-03
 -1      2646-1.41054E-01 1.94208E+00-1.11399E-03
 -1      2647 9.28807E-02 1.82875E+00 6.79255E-03
 -1      2648-2.17254E-02 2.23792E+00 4.68682E-03
 -1      2649 2.24260E-01 2.11974E+00 1.49941E-02
 -1      2650-1.29050E-02 2.10445E+00 1.08258E-03
 -1      2651 2.20010E-02 3.05048E+00 6.40915E-03
 -1      2652-2.37631E-01 2.84976E+00-9.63317E-04
 -1      2653 2.06534E-01 2.73483E+00 1.44433E-02
 -1      2654-4.49872E-02 2.54238E+00 4.62994E-03
 -1      2655-5.96843E-02 2.71328E+00 1.04277E-03
 -1      2656-1.07648E+00 8.38129E+00-3.87015E-04
 -1      2657-9.84992E-01 7.87226E+00-4.53966E-04
 -1      2658-6.40566E-01 3.06049E+00-6.77797E-03
 -1      2659-1.01476E+00 6.62804E+00-1.25724E-03
 -1      2660-1.40675E+00 6.55784E+00-1.28649E-02
 -1      2661-1.08451E+00 6.14141E+00-6.55151E-03
 -1      2662-9.15982E-01 5.82311E+00-1.73669E-03
 -1      2663-1.28805E+00 5.75867E+00-1.48989E-02
 -1      2664-1.22751E+00 6.23371E+00-5.51923E-03
 -1      2665-6.28582E-02 3.12154E+00 5.87420E-03
 -1      2666 2.10295E-01 3.33457E+00 1.57751E-02
 -1      2667-8.05280E-02 3.30749E+00 1.55368E-03
 -1      2668-7.40432E-01 6.43069E+00-5.45847E-04
 -1      2669-9.54187E-01 6.03676E+00-6.63349E-03
 -1      2670-1.39094E+00 1.26295E+01 4.20064E-03
 -1      2671-1.81937E+00 1.22324E+01-1.28269E-04
 -1      2672-9.82868E-01 1.20995E+01 9.14199E-03
 -1      2673-1.40758E+00 1.17080E+01 3.37794E-03
 -1      2674-1.46712E+00 1.20051E+01 7.27173E-04
 -1      2675 3.16798E-01 1.86179E+00 7.37778E-03
 -1      2676 4.63164E-01 2.16008E+00 1.55481E-02
 -1      2677 4.66978E-01 2.31273E+00 5.85625E-03
 -1      2678-1.05623E+00 6.85468E+00-5.20875E-03
 -1      2679 1.17033E-01 2.98402E+00 5.83191E-03
 -1      2680-7.89877E-01 2.80180E+00-3.20238E-05
 -1      2681-8.22901E-01 2.96276E+00 7.49107E-03
 -1      2682-8.83645E-01 2.47596E+00 6.06049E-03
 -1      2683-9.18868E-01 2.62568E+00 1.57691E-02
 -1      2684-3.80519E-01 2.67755E+00 1.62070E-03
 -1      2685-5.32728E-01 2.98562E+00 8.00646E-03
 -1      2686-2.36758E-01 2.85005E+00 9.28247E-04
 -1      2687-6.41421E-01 2.64066E+00 1.63097E-02
 -1      2688-3.56145E-01 2.50896E+00 7.09653E-03
 -1      2689-8.57448E-01 3.13134E+00-4.97323E-06
 -1      2690-8.22906E-01 2.96285E+00-7.49828E-03
 -1      2691-1.06989E+00 3.28105E+00-1.51258E-02
 -1      2692-1.11077E+00 3.45860E+00-5.69817E-03
 -1      2693-4.52574E+00 2.13989E+01-2.08510E-03
 -1      2694-4.04147E+00 2.18829E+01 1.97700E-04
 -1      2695-4.56460E+00 2.24858E+01-1.38066E-03
 -1      2696-4.47876E+00 2.21430E+01-3.63924E-04
 -1      2697-5.05088E+00 2.19985E+01-4.24922E-03
 -1      2698-3.38730E+00 2.16797E+01-2.54616E-03
 -1      2699-4.04135E+00 2.18830E+01-2.61886E-04
 -1      2700-3.20336E+00 2.24576E+01-4.89328E-03
 -1      2701-3.86133E+00 2.26611E+01-2.01808E-03
 -1      2702-3.77768E+00 2.23172E+01-4.98721E-04
 -1      2703-5.92473E+00 2.28897E+01-1.50957E-03
 -1      2704-5.20837E+00 2.15985E+01-4.60593E-05
 -1      2705-5.11902E+00 2.12561E+01-2.20357E-03
 -1      2706-5.74115E+00 2.21989E+01-1.61904E-03
 -1      2707-5.64929E+00 2.18542E+01-4.34992E-03
 -1      2708-4.74123E+00 2.31808E+01-1.23760E-03
 -1      2709-2.87875E+00 2.21753E+01-4.03756E-05
 -1      2710-2.79740E+00 2.18288E+01-2.44186E-03
 -1      2711-2.60942E+00 2.26101E+01-4.78939E-03
 -1      2712-2.69132E+00 2.29600E+01-1.77680E-03
 -1      2713-1.61274E+00 1.64718E+01 3.43499E-03
 -1      2714-1.68030E+00 1.67958E+01 7.83264E-07
 -1      2715-1.48858E+00 1.75258E+01 2.57262E-03
 -1      2716-2.51091E+00 1.69418E+01 6.31379E-04
 -1      2717-1.42047E+00 1.71967E+01 6.96823E-03
 -1      2718-2.76261E+00 1.65412E+01 6.79941E-05
 -1      2719-2.16050E+00 1.63418E+01 3.46010E-03
 -1      2720-2.58190E+00 1.72619E+01 2.66856E-03
 -1      2721-1.97412E+00 1.70618E+01 6.99834E-03
 -1      2722-3.46370E-01 1.78747E+00 8.78717E-03
 -1      2723-5.30833E-01 2.04460E+00 1.70911E-02
 -1      2724-2.98557E-01 2.07595E+00 1.73632E-03
 -1      2725-3.15265E-01 2.20790E+00 7.30030E-03
 -1      2726-5.76518E-01 1.77798E+00 8.18074E-03
 -1      2727-6.05195E-01 1.91286E+00 1.57568E-05
 -1      2728-7.78179E-01 2.03654E+00 1.64711E-02
 -1      2729-8.13309E-01 2.18150E+00 6.18609E-03
 -1      2730 3.09602E-01 2.92724E+00-1.12248E-06
 -1      2731 3.04792E-01 3.09463E+00 6.85555E-03
 -1      2732 4.72795E-01 2.62289E+00 5.74123E-03
 -1      2733 4.74808E-01 2.78059E+00 1.49174E-02
 -1      2734-1.43376E+00 8.84965E+00-4.56524E-03
 -1      2735-8.34967E-01 1.24448E+01-2.73165E-05
 -1      2736-8.87774E-01 1.27410E+01 4.24725E-03
 -1      2737-4.40568E-01 1.19192E+01 3.54065E-03
 -1      2738-4.88255E-01 1.22106E+01 9.19647E-03
 -1      2739-2.81102E+00 1.20362E+01-4.08370E-05
 -1      2740-2.87960E+00 1.23256E+01 4.22911E-03
 -1      2741-2.96911E+00 1.14054E+01 3.52546E-03
 -1      2742-3.03779E+00 1.16879E+01 9.14079E-03
 -1      2743-2.05500E+00 1.18848E+01 8.03737E-04
 -1      2744-2.36932E+00 1.24255E+01 4.30095E-03
 -1      2745-1.81944E+00 1.22324E+01 8.61818E-05
 -1      2746-1.99047E+00 1.15899E+01 3.67358E-03
 -1      2747-2.53380E+00 1.17819E+01 9.22741E-03
 -1      2748 1.98854E-02 3.05024E+00-6.34003E-03
 -1      2749-2.76171E-01 3.18649E+00 8.74512E-04
 -1      2750 1.69978E-01 3.41737E+00-1.38727E-02
 -1      2751-1.37218E-01 3.55761E+00-4.51692E-03
 -1      2752-1.21766E-01 3.38932E+00-1.04193E-03
 -1      2753-1.42466E+00 5.86834E+00-3.00320E-05
 -1      2754-1.47140E+00 6.08914E+00 6.14071E-03
 -1      2755-1.55458E+00 5.40410E+00 5.02634E-03
 -1      2756-1.60237E+00 5.61534E+00 1.30542E-02
 -1      2757-8.55905E-01 5.72352E+00 1.27909E-03
 -1      2758-1.07764E+00 6.14242E+00 6.44265E-03
 -1      2759-6.65708E-01 5.97451E+00 5.26746E-04
 -1      2760-1.21854E+00 5.66117E+00 1.33369E-02
 -1      2761-8.15705E-01 5.49574E+00 5.62502E-03
 -1      2762 2.97970E-01 3.26966E+00-3.13045E-05
 -1      2763 3.04785E-01 3.09471E+00-6.85149E-03
 -1      2764 4.63084E-01 3.65547E+00-5.38532E-03
 -1      2765 4.68520E-01 3.46924E+00-1.43613E-02
 -1      2766 8.55992E-02 6.10428E+00-1.67675E-05
 -1      2767 6.18517E-02 6.33241E+00 5.80134E-03
 -1      2768 3.49172E-01 5.69221E+00 4.86517E-03
 -1      2769 3.31833E-01 5.91280E+00 1.26111E-02
 -1      2770-4.10392E-01 5.79206E+00 9.31719E-04
 -1      2771-1.47379E+00 1.05189E+01-2.06765E-04
 -1      2772-9.64830E-01 1.03314E+01 4.61211E-03
 -1      2773-7.80488E-01 1.09456E+01 9.67439E-03
 -1      2774-1.24686E+00 1.08586E+01 7.90297E-04
 -1      2775-1.29733E+00 1.11346E+01 3.46065E-03
 -1      2776-1.14535E+00 7.33474E+00-5.04977E-03
 -1      2777 3.58755E-02 6.56673E+00-3.48787E-05
 -1      2778 6.18368E-02 6.33249E+00-5.81643E-03
 -1      2779 2.48317E-01 6.84082E+00-1.21281E-02
 -1      2780-5.39325E-01 6.70572E+00-9.59566E-04
 -1      2781 2.22735E-01 7.08447E+00-4.56213E-03
 -1      2782-3.26039E-01 6.26164E+00-5.51437E-03
 -1      2783-7.38102E-01 6.43010E+00 4.85854E-04
 -1      2784-5.71990E-01 6.93384E+00-4.08442E-03
 -1      2785-1.50443E-01 6.76287E+00-1.18493E-02
 -1      2786 2.49343E-01 1.63547E+00 1.72187E-02
 -1      2787 3.42398E-02 1.74210E+00 6.15242E-03
 -1      2788 3.90087E-02 1.62578E+00 1.54962E-03
 -1      2789-1.51992E+00 6.31618E+00-1.65508E-05
 -1      2790-1.47142E+00 6.08922E+00-6.15897E-03
 -1      2791-1.86111E+00 6.73899E+00-4.67877E-03
 -1      2792-1.80674E+00 6.50497E+00-1.24597E-02
 -1      2793-2.35218E+00 1.00700E+01 4.88841E-03
 -1      2794-2.41547E+00 1.03443E+01 3.92442E-06
 -1      2795-2.76388E+00 1.05639E+01 9.84972E-03
 -1      2796-2.83221E+00 1.08436E+01 3.65060E-03
 -1      2797-1.81465E+00 1.07467E+01 9.00315E-04
 -1      2798-1.82617E+00 7.72929E+00 3.11965E-05
 -1      2799-1.93693E+00 8.23073E+00 3.09413E-05
 -1      2800 2.20427E-01 5.67820E-01 8.25459E-03
 -1      2801 2.07064E-01 4.95483E-01 2.36085E-05
 -1      2802 3.19191E-01 6.25838E-01 8.12271E-03
 -1      2803 6.08356E-02 6.76638E-01 1.73392E-03
 -1      2804 3.37735E-01 7.03612E-01 1.93731E-02
 -1      2805 5.03334E-01 3.38622E+00 1.61775E-02
 -1      2806 5.04386E-01 3.21385E+00 6.82617E-03
 -1      2807 2.31718E-01 2.81596E+00-1.60800E-02
 -1      2808-3.60514E-02 2.79429E+00-1.49406E-03
 -1      2809-4.70086E-02 2.94693E+00-5.96126E-03
 -1      2810-5.15857E+00 2.87549E+01 1.23286E-03
 -1      2811-4.58644E+00 2.83084E+01 2.81380E-03
 -1      2812-5.27413E+00 2.85117E+01 1.36661E-03
 -1      2813-5.18275E+00 2.81540E+01 3.31190E-04
 -1      2814-1.04636E+00 3.03171E+00 7.17033E-03
 -1      2815-4.96647E-01 3.25841E+00 2.18182E-03
 -1      2816-1.08486E+00 3.19537E+00 1.69093E-02
 -1      2817-7.81665E-01 3.21599E+00 1.73891E-02
 -1      2818-4.68071E-01 3.07529E+00 8.10686E-03
 -1      2819-1.00620E+00 2.86160E+00-7.32106E-03
 -1      2820-9.67175E-01 2.69791E+00-1.74791E-02
 -1      2821-4.32332E+00 2.12573E+01-2.02194E-03
 -1      2822-4.80458E+00 2.07782E+01-5.29189E-03
 -1      2823-4.23957E+00 2.09195E+01-5.43752E-04
 -1      2824-3.49944E+00 2.14600E+01-2.63685E-03
 -1      2825-2.85109E+00 2.12570E+01-5.93846E-03
 -1      2826-3.41863E+00 2.11206E+01-6.91765E-04
 -1      2827-5.39631E+00 2.06383E+01-5.41532E-03
 -1      2828-5.48682E+00 2.09788E+01-2.24229E-03
 -1      2829-2.34362E+00 2.17529E+01-2.41586E-03
 -1      2830-2.26454E+00 2.14066E+01-5.83278E-03
 -1      2831 5.05485E-01 2.86350E+00-1.65957E-02
 -1      2832 5.04864E-01 3.03587E+00-6.92586E-03
 -1      2833 3.44222E-01 6.26086E+00-5.85760E-03
 -1      2834-3.83178E-01 5.90541E+00-1.33203E-03
 -1      2835 3.64830E-01 6.02828E+00-1.40243E-02
 -1      2836-4.11001E-01 6.12088E+00-5.28998E-03
 -1      2837-1.36723E-02 5.95557E+00-1.37153E-02
 -1      2838-1.66851E+00 5.71346E+00-1.44569E-02
 -1      2839-1.72046E+00 5.93609E+00-6.05019E-03
 -1      2840-1.56125E+00 1.27594E+01 3.99549E-03
 -1      2841-1.12620E+00 1.31651E+01 9.66244E-03
 -1      2842-1.62417E+00 1.30647E+01 1.05300E-03
 -1      2843-1.77487E+00 6.16836E+00 5.88269E-03
 -1      2844-1.03912E+00 6.51208E+00 1.72832E-03
 -1      2845-1.82634E+00 6.39107E+00 1.38911E-02
 -1      2846 3.01830E-01 6.73618E+00 1.35406E-02
 -1      2847 3.22862E-01 6.50363E+00 5.69005E-03
 -1      2848-4.80815E-01 6.60242E+00 1.36670E-03
 -1      2849-9.94500E-01 6.27254E+00 6.45213E-03
 -1      2850-1.42149E+00 6.44346E+00 1.41992E-02
 -1      2851-6.49324E+00 2.49088E+01-1.30297E-03
 -1      2852-5.29228E+00 2.52107E+01-1.02614E-03
 -1      2853 4.69470E-01 1.80945E+00 7.36060E-03
 -1      2854 4.61178E-01 1.67228E+00 1.78123E-02
 -1      2855-5.64165E-01 9.97368E+00 1.13114E-02
 -1      2856-1.06113E+00 1.01595E+01 4.52257E-03
 -1      2857-1.01532E+00 9.89337E+00 1.14322E-03
 -1      2858-1.67629E+00 1.59307E+01 8.26268E-03
 -1      2859-2.26980E+00 1.61294E+01 3.43997E-03
 -1      2860-2.20264E+00 1.58161E+01 8.64453E-04
 -1      2861-5.66009E-01 1.29827E+01 4.09102E-03
 -1      2862-6.17377E-01 1.32822E+01 9.69363E-03
 -1      2863-1.19807E+00 1.63846E+01 3.39381E-03
 -1      2864-1.13380E+00 1.60612E+01 8.24401E-03
 -1      2865-4.63082E+00 2.92776E+01-2.36091E-05
 -1      2866-4.53874E+00 2.89178E+01 1.06135E-03
 -1      2867-4.05865E+00 2.88316E+01 1.04381E-03
 -1      2868-3.96767E+00 2.84718E+01 2.66497E-03
 -1      2869-4.94137E-01 1.04301E+01 4.74425E-03
 -1      2870-5.39682E-01 1.07113E+01-4.36236E-06
 -1      2871-3.01304E-01 1.10506E+01 9.77032E-03
 -1      2872-3.47101E-01 1.13393E+01 3.64216E-03
 -1      2873-3.26027E-01 6.26160E+00 5.51047E-03
 -1      2874-6.67887E-01 5.97345E+00-5.93309E-04
 -1      2875-4.38157E-02 5.84163E+00 1.22771E-02
 -1      2876-3.79618E-01 5.56089E+00 4.14580E-03
 -1      2877-2.34261E-02 4.64126E-01-1.47021E-03
 -1      2878 9.57108E-02 5.47372E-01 7.52100E-03
 -1      2879 6.19488E-02 5.79625E-01 6.66859E-03
 -1      2880 1.99418E-01 6.75686E-01 1.87128E-02
 -1      2881-6.13504E-01 2.90096E+00 6.86090E-03
 -1      2882-4.76048E+00 2.15173E+01-1.84382E-03
 -1      2883-3.23571E+00 2.18941E+01-2.15241E-03
 -1      2884-1.96916E+00 7.20580E+00-4.45775E-03
 -1      2885-2.65154E+00 9.86826E+00 4.77656E-03
 -1      2886-2.58568E+00 9.59770E+00 1.15700E-02
 -1      2887-1.66741E+00 9.76742E+00 1.31818E-03
 -1      2888-2.31692E+00 8.69696E+00-4.14079E-03
 -1      2889 1.06645E-01 3.14858E+00-5.73204E-03
 -1      2890-1.47392E+00 1.05189E+01 1.81761E-04
 -1      2891-1.87581E+00 1.01550E+01 4.96752E-03
 -1      2892-1.87020E+00 1.10206E+01 3.83074E-03
 -1      2893-2.27682E+00 1.06503E+01 9.89744E-03
 -1      2894-2.12810E-01 6.39554E+00-4.95468E-03
 -1      2895-5.88020E+00 2.74836E+01-5.91592E-04
 -1      2896-6.16061E+00 3.18233E+01 1.74650E-04
 -1      2897-5.20353E+00 3.13107E+01-8.44859E-05
 -1      2898-6.14015E+00 3.18502E+01-3.24249E-04
 -1      2899-1.18595E+00 6.01986E+00 5.57469E-03
 -1      2900-6.42218E+00 3.09900E+01 2.52768E-04
 -1      2901-7.09919E+00 3.16023E+01-4.17048E-05
 -1      2902 1.61377E-01 1.90298E+00 6.06164E-03
 -1      2903-1.87237E-01 6.17686E+00 4.98076E-03
 -1      2904-2.05968E+00 1.02585E+01 4.26345E-03
 -1      2905-8.34457E-01 1.04984E+01 4.06483E-03
 -1      2906-4.46567E-01 6.35901E+00 5.14751E-03
 -1      2907-9.43110E-02 6.65838E+00 1.32847E-02
 -1      2908-1.42104E-01 1.03536E+01 4.74823E-03
 -1      2909-1.01000E-01 1.00734E+01 1.14573E-02
 -1      2910-1.20740E+00 1.25315E+01 3.68737E-03
 -1      2911-3.34768E+00 1.27061E+01 9.48760E-03
 -1      2912-3.27569E+00 1.24156E+01 3.96583E-03
 -1      2913-2.33684E+00 1.29151E+01 1.07888E-03
 -1      2914-2.01823E+00 1.65294E+01 2.95655E-03
 -1      2915-2.26849E+00 1.26123E+01 4.15457E-03
 -1      2916-2.82929E+00 1.28065E+01 9.58587E-03
 -1      2917-4.64432E-01 1.57189E+00 1.95136E-02
 -1      2918-2.73473E-01 1.71379E+00 9.01415E-03
 -1      2919-2.58649E-01 1.59911E+00 2.38801E-03
 -1      2920-2.11410E+00 9.67671E+00 1.16601E-02
 -1      2921-1.71968E+00 1.00310E+01 5.02953E-03
 -1      2922-7.18051E-01 1.70006E+00 7.85213E-03
 -1      2923-6.84348E-01 1.57034E+00 1.89084E-02
 -1      2924 2.60934E-01 4.33114E-01 1.81467E-02
 -1      2925 4.46329E-02 4.11925E-01 1.21723E-03
 -1      2926 2.40710E-01 3.73094E-01 7.03825E-03
 -1      2927-1.18050E-02 2.65823E-02 7.83617E-04
 -1      2928-1.51364E-02 2.69042E-02-4.58957E-04
 -1      2929-1.98064E-02 1.04042E-02 1.38324E-03
 -1      2930-4.49656E-02 7.78980E-02 3.92440E-03
 -1      2931-1.83563E-02 8.63317E-03 3.55138E-03
 -1      2932 5.37809E-01 1.87627E+00-3.44965E-02
 -1      2933-5.65849E+00 2.97583E+01 1.02347E-03
 -1      2934-4.96679E+00 2.95549E+01 2.15501E-03
 -1      2935-5.56572E+00 2.93986E+01 2.60639E-04
 -1      2936 4.86361E-03 2.73519E-02-1.35397E-04
 -1      2937 1.53042E-01 4.08546E-01 1.73760E-02
 -1      2938 4.42870E-02 3.33696E-01 5.38768E-03
 -1      2939-2.50491E+00 1.22631E+01 3.72455E-03
 -1      2940-4.34504E+00 2.97192E+01 1.96540E-03
 -1      2941-4.43742E+00 3.00802E+01 6.83512E-04
 -1      2942-7.12267E+00 3.24003E+01-7.59883E-05
 -1      2943-6.59162E+00 3.25398E+01-1.30119E-04
 -1      2944-6.81400E+00 3.24814E+01 8.63173E-06
 -1      2945-4.30174E-01 1.84667E+00 7.34282E-03
 -1      2946-7.16982E+00 3.28661E+01-2.16981E-04
 -1      2947-7.13299E+00 3.16109E+01-3.46421E-05
 -1      2948-7.70122E+00 3.27266E+01-1.55105E-04
 -1      2949 1.32792E-01 5.26378E-01 6.96431E-03
 -1      2950-4.99120E+00 2.89521E+01 9.84643E-04
 -1      2951-3.22510E+00 2.61970E+01-7.17548E-03
 -1      2952-4.20536E+00 2.70035E+01-3.74335E-03
 -1      2953-3.59078E+00 2.71653E+01-3.56643E-03
 -1      2954-3.27600E+00 2.58868E+01-4.13842E-03
 -1      2955-4.25439E+00 2.66920E+01-1.95641E-03
 -1      2956-3.88588E+00 2.57269E+01-4.28838E-03
 -1      2957-6.03741E-01 1.40587E+01-1.81686E-02
 -1      2958-7.15017E-01 1.46803E+01-1.75728E-02
 -1      2959-6.13811E-01 1.38584E+01-1.11009E-02
 -1      2960-1.24565E+00 1.43538E+01-1.08094E-02
 -1      2961-1.12794E+00 1.37381E+01-1.11446E-02
 -1      2962-3.40081E+00 2.69129E+01-6.64620E-03
 -1      2963-4.38684E+00 2.77214E+01-3.37317E-03
 -1      2964-3.57862E+00 2.76312E+01-6.03370E-03
 -1      2965-3.76986E+00 2.78841E+01-3.22162E-03
 -1      2966-6.79933E+00 3.04880E+01-4.69600E-05
 -1      2967-6.66595E+00 3.01935E+01-1.92539E-04
 -1      2968-7.34304E+00 3.08049E+01-3.05496E-04
 -1      2969-7.21962E-02 2.41080E-01-1.07221E-02
 -1      2970-7.23892E-02 2.13860E-01-2.70904E-03
 -1      2971-1.08435E-01 1.58128E-01-1.09386E-02
 -1      2972 6.15039E-03 8.53361E-03-1.28900E-03
 -1      2973 1.64181E-02 1.17138E-02-1.88029E-03
 -1      2974-7.66742E+00 3.27180E+01 1.05097E-05
 -1      2975-7.35847E+00 3.27991E+01 1.05895E-04
 -1      2976 3.67136E-02 2.17651E-01-1.59331E-03
 -1      2977 2.16913E-01 2.85645E-01-8.26691E-03
 -1      2978 8.92787E-02 1.67098E-01-8.89134E-03
 -1      2979-1.28820E-01 6.86457E-01-2.29059E-03
 -1      2980-1.38222E-01 7.59804E-01-9.17502E-03
 -1      2981-3.28060E-02 6.16797E-01-1.43284E-03
 -1      2982-1.01809E-01 4.30298E-01-2.69784E-03
 -1      2983-1.10616E-01 4.86107E-01-1.04577E-02
 -1      2984-2.03108E-01 5.56158E-01-8.88648E-03
 -1      2985-3.23998E+00 1.71095E+01 2.39214E-03
 -1      2986-3.16568E+00 1.67910E+01 5.48721E-04
 -1      2987-2.76270E+00 1.65412E+01-1.08291E-04
 -1      2988-3.05021E+00 1.59888E+01 3.36357E-03
 -1      2989-2.97857E+00 1.56775E+01 8.95278E-04
 -1      2990-3.45303E+00 1.62386E+01 2.92042E-03
 -1      2991-4.74998E+00 3.06973E+01-7.59272E-04
 -1      2992-6.09959E+00 3.06714E+01-2.40119E-04
 -1      2993-5.68440E+00 3.12361E+01-7.80820E-04
 -1      2994-3.85117E+00 1.62986E+01-2.04263E-05
 -1      2995-4.34266E+00 1.68642E+01 2.46609E-03
 -1      2996-4.13320E+00 1.57549E+01 3.40462E-03
 -1      2997-5.01621E-03 4.31800E-02 1.37484E-03
 -1      2998-3.40684E+00 1.30910E+01-3.49146E-03
 -1      2999-2.31952E+00 1.30031E+01-9.02156E-04
 -1      3000-2.94989E+00 1.26193E+01-2.22984E-05
 -1      3001-3.19888E+00 1.21044E+01-4.25641E-03
 -1      3002-2.13957E+00 1.20124E+01-1.16361E-03
 -1      3003-2.57557E+00 1.24783E+01-3.97361E-03
 -1      3004-2.86559E-01 3.56063E-01 8.14259E-03
 -1      3005-9.22064E-02 4.14228E-01 2.38265E-03
 -1      3006-2.58610E-01 4.69610E-01-3.61211E-05
 -1      3007-3.85680E-01 5.83555E-01 8.77289E-03
 -1      3008-1.33915E-01 6.63962E-01 2.71385E-03
 -1      3009-1.93826E-01 5.18063E-01 9.10249E-03
 -1      3010-2.38296E+00 1.32962E+01-3.56243E-03
 -1      3011-1.94277E+00 1.28226E+01-8.41167E-05
 -1      3012-2.19996E+00 1.22971E+01-4.33814E-03
 -1      3013-3.69936E+00 1.66645E+01 6.64667E-03
 -1      3014-3.50185E+00 1.55555E+01 8.16618E-03
 -1      3015-4.25927E+00 1.65425E+01 6.68046E-03
 -1      3016-4.05167E+00 1.54393E+01 8.17420E-03
 -1      3017-8.14941E-02 3.35958E-01 9.73481E-03
 -1      3018-2.34928E-02 4.64159E-01 1.47089E-03
 -1      3019-1.20670E-01 5.68319E-01 1.02488E-02
 -1      3020-4.44681E+00 2.85573E+01-3.84736E-05
 -1      3021-3.87725E+00 2.81119E+01 1.14275E-03
 -1      3022-1.08141E+00 1.65902E+01 1.56415E-02
 -1      3023-3.95421E-01 1.28406E+01 1.94107E-02
 -1      3024-5.08943E+00 2.77935E+01 1.46123E-03
 -1      3025-2.67563E-01 6.68181E-01-2.05230E-02
 -1      3026-2.12064E-01 4.14901E-01-2.23218E-02
 -1      3027-1.54687E+00 1.61511E+01-1.83542E-05
 -1      3028-1.07230E+00 1.57433E+01 3.48964E-03
 -1      3029 5.39427E-01 1.87649E+00 3.45929E-02
 -1      3030-9.42567E-01 1.30415E+01-1.23381E-05
 -1      3031-6.71845E-01 1.35885E+01 3.99573E-03
 -1      3032-3.40427E-01 1.97905E+00-1.06648E-02
 -1      3033-3.22576E-01 1.85639E+00-3.18611E-03
 -1      3034-1.41122E-01 1.66258E+00-1.68641E-03
 -1      3035-7.67777E+00 3.19285E+01-4.27502E-05
 -1      3036-3.24725E+00 1.65793E+01-3.84362E-03
 -1      3037-3.17383E+00 1.62648E+01-1.18088E-03
 -1      3038-2.67904E+00 1.58564E+01-3.43545E-04
 -1      3039-1.68234E+00 1.33590E+01 3.92263E-03
 -1      3040-1.94276E+00 1.28226E+01 5.72614E-05
 -1      3041-2.40029E+00 1.32073E+01 4.01191E-03
 -1      3042 2.32610E-01 6.49785E-01 2.62185E-05
 -1      3043 3.54344E-01 7.97155E-01 8.04447E-03
 -1      3044 4.68123E-02 1.48667E+00 6.23940E-03
 -1      3045-3.00832E-01 1.70970E+00-1.08546E-02
 -1      3046 3.13407E-01 1.72961E+00-1.32083E-05
 -1      3047 4.50293E-01 1.54920E+00 7.46258E-03
 -1      3048-4.41242E-01 7.67566E-01-7.69738E-03
 -1      3049-3.02345E-01 6.17061E-01-1.79136E-05
 -1      3050-3.55420E-01 5.01883E-01-8.72249E-03
 -1      3051-2.13121E+00 1.54936E+01 3.52576E-03
 -1      3052-3.09559E+00 1.59408E+01-4.01481E-03
 -1      3053-3.36762E+00 1.22204E+01 1.90724E-02
 -1      3054-3.33200E+00 1.27932E+01-8.97223E-03
 -1      3055-3.12642E+00 1.18141E+01-1.01730E-02
 -1      3056 6.30449E-02 7.49352E-01 6.56866E-03
 -1      3057 4.24595E-01 9.21633E-01-3.74046E-02
 -1      3058 4.57644E-01 1.12963E+00-3.67335E-02
 -1      3059 4.31511E-01 1.22292E+00-2.00293E-02
 -1      3060 2.57675E-01 1.42700E+00-1.87308E-02
 -1      3061 2.49563E-01 1.19398E+00-1.91918E-02
 -1      3062-2.20668E+00 7.78379E+00 6.64042E-03
 -1      3063-2.32667E+00 8.28464E+00 6.43477E-03
 -1      3064-1.40436E+00 8.17621E+00 2.01020E-03
 -1      3065-2.81293E+00 1.28941E+01-9.01491E-03
 -1      3066-2.62018E+00 1.19085E+01-1.02425E-02
 -1      3067-7.95462E-01 1.75162E+00 3.59627E-02
 -1      3068-1.07826E+00 6.73573E+00 6.29698E-03
 -1      3069-3.13254E-01 4.13362E-01 2.02673E-02
 -1      3070-4.13470E-01 6.57297E-01 2.07656E-02
 -1      3071-1.14966E-01 1.67460E+00 1.13879E-03
 -1      3072-2.39770E-01 1.46204E+00 9.23438E-03
 -1      3073-4.42511E-01 7.44794E-01 8.64756E-03
 -1      3074-8.15269E-01 1.96120E+00-9.50814E-03
 -1      3075-4.45847E-01 1.64440E+00-8.62821E-04
 -1      3076-1.88098E+00 6.62367E+00 5.79108E-03
 -1      3077-2.05154E-02 2.62074E+00-5.99639E-03
 -1      3078-6.22071E+00 2.37354E+01 1.63656E-03
 -1      3079-4.94067E+00 2.36835E+01 3.33993E-04
 -1      3080-6.03494E+00 2.30395E+01 1.73477E-03
 -1      3081-3.38017E+00 2.42738E+01-1.94091E-05
 -1      3082-3.55254E+00 2.49807E+01-2.30454E-05
 -1      3083-2.83056E+00 2.38460E+01 1.94439E-03
 -1      3084-2.99871E+00 2.45514E+01 1.86825E-03
 -1      3085-4.09818E+00 2.38960E+01 5.29171E-04
 -1      3086-4.74335E+00 2.46745E+01-3.15363E-04
 -1      3087-4.56465E+00 2.39707E+01-3.00141E-04
 -1      3088-4.84950E+00 2.33313E+01 1.47938E-03
 -1      3089-5.02901E+00 2.40311E+01 1.35636E-03
 -1      3090-4.18439E+00 2.42448E+01 2.11361E-03
 -1      3091-4.00954E+00 2.35424E+01 2.21180E-03
 -1      3092-3.59376E+00 2.21566E+01 2.96067E-03
 -1      3093-3.79631E+00 2.11895E+01 3.78750E-04
 -1      3094-3.51188E+00 2.18148E+01 8.91801E-04
 -1      3095-4.56425E+00 2.19160E+01 2.27676E-03
 -1      3096-3.93601E+00 2.11552E+01 4.68996E-05
 -1      3097-4.47917E+00 2.15758E+01 6.95517E-04
 -1      3098-5.73580E+00 2.16332E+01 2.50483E-03
 -1      3099-4.75998E+00 2.09557E+01 1.93544E-04
 -1      3100-2.43000E+00 2.24537E+01 2.74325E-03
 -1      3101-2.97503E+00 2.13941E+01 2.30567E-04
 -1      3102 5.03117E-01 2.70394E+00-7.00525E-03
 -1      3103-5.20278E-01 3.42191E+00 7.93474E-03
 -1      3104-1.12622E+00 3.37120E+00 7.06559E-03
 -1      3105-3.05705E+00 1.15308E+01-4.33078E-03
 -1      3106-2.07395E+00 1.17162E+01-4.48295E-03
 -1      3107 3.82008E-01 5.80610E+00-5.92849E-03
 -1      3108-3.50044E-01 5.67286E+00-5.33873E-03
 -1      3109-4.37235E+00 2.49762E+01 5.02329E-04
 -1      3110-3.26530E+00 2.56388E+01 1.61924E-03
 -1      3111-3.81448E+00 2.45466E+01 1.95145E-03
 -1      3112-5.21430E+00 2.47619E+01 2.95659E-04
 -1      3113-6.50458E+00 2.48114E+01 1.38368E-03
 -1      3114-5.49948E+00 2.41195E+01 1.53728E-03
 -1      3115-5.30415E+00 2.51127E+01 1.11994E-03
 -1      3116-4.46039E+00 2.53279E+01 1.91929E-03
 -1      3117 3.76490E-01 8.52685E-01-2.06793E-02
 -1      3118 2.24054E-01 8.26407E-01-1.97504E-02
 -1      3119 2.06372E-01 1.11409E+00-9.39360E-03
 -1      3120 2.77329E-01 6.97881E+00 5.63767E-03
 -1      3121-9.30874E-01 2.54677E+00-7.39851E-03
 -1      3122-3.96718E-01 2.57947E+00-8.47203E-03
 -1      3123-3.27917E-02 6.16798E-01 1.42912E-03
 -1      3124-1.43655E-01 7.35420E-01 1.00962E-02
 -1      3125-1.61973E+00 5.50108E+00-6.12693E-03
 -1      3126-5.14343E-01 6.82917E+00 5.09796E-03
 -1      3127-6.52938E-01 1.45426E+00 7.96370E-03
 -1      3128-7.45914E-01 1.69804E+00-9.69477E-03
 -1      3129-9.49336E-02 3.47287E+00 5.84156E-03
 -1      3130 4.99139E-01 3.57107E+00 6.77267E-03
 -1      3131-7.35184E-01 8.56064E+00 5.86220E-03
 -1      3132-6.51169E-01 8.04563E+00 5.98524E-03
 -1      3133-6.90652E-01 8.30479E+00 1.76558E-03
 -1      3134-1.84694E+00 6.02504E+00 2.73283E-02
 -1      3135-3.42255E+00 1.30034E+01 3.87049E-03
 -1      3136-1.88846E+00 1.05635E+01-5.90573E-03
 -1      3137-1.83391E+00 1.02952E+01-1.80268E-03
 -1      3138-1.41832E+00 9.94018E+00-6.68380E-04
 -1      3139-2.22645E+00 2.19680E+01-1.08179E-02
 -1      3140-5.68831E+00 2.11137E+01-9.99833E-03
 -1      3141-1.09923E+00 2.92511E+00 3.30788E-02
 -1      3142-9.04437E-02 3.50528E-01-1.05995E-02
 -1      3143-1.10484E+00 1.07172E+01-5.46520E-03
 -1      3144-1.05754E+00 1.04460E+01-1.65369E-03
 -1      3145-1.30847E+00 9.95933E+00-3.08771E-04
 -1      3146 5.83454E-01 3.12156E+00-3.19028E-02
 -1      3147-8.76704E-01 5.59224E+00-6.80713E-03
 -1      3148-2.83832E+00 1.03943E+01-5.69421E-03
 -1      3149-2.07592E+00 9.81847E+00-4.98586E-04
 -1      3150-1.68596E-01 1.09189E+01-5.68727E-03
 -1      3151-6.55275E-01 1.00920E+01-4.96938E-04
 -1      3152 3.40197E-02 1.92867E-02-5.14992E-06
 -1      3153 3.49934E-02 1.88304E-02-4.54744E-03
 -1      3154 7.82931E-02 5.36552E-02-2.38871E-03
 -1      3155 8.00063E-02 5.33083E-02-1.08140E-02
 -1      3156 2.90360E-02 1.51933E-02-4.58059E-03
 -1      3157-1.10457E+00 2.92472E+00-3.32305E-02
 -1      3158 4.40148E-01 6.38779E+00 2.68659E-02
 -1      3159-4.12374E-01 6.78197E-01-1.96223E-02
 -1      3160-3.27230E-01 4.28837E-01-2.12325E-02
 -1      3161 5.85553E-01 3.12187E+00 3.20386E-02
 -1      3162-4.75551E+00 2.72444E+01-8.52139E-04
 -1      3163-4.38252E+00 2.62779E+01-2.29598E-03
 -1      3164-4.43117E+00 2.59676E+01-9.14605E-04
 -1      3165-3.77041E+00 2.64378E+01-2.14147E-03
 -1      3166-9.89292E-01 1.55391E+01-9.23468E-03
 -1      3167-1.86382E+00 1.50108E+01-1.97050E-03
 -1      3168-1.17612E+00 1.49084E+01-5.18888E-03
 -1      3169-7.24732E-01 1.44768E+01-1.06910E-02
 -1      3170-1.58236E+00 1.39641E+01-2.45492E-03
 -1      3171-1.40244E+00 1.45790E+01-5.47997E-03
 -1      3172-2.00252E-01 3.99148E-01 2.13268E-02
 -1      3173-2.70442E-01 6.45641E-01 2.16854E-02
 -1      3174-2.80715E+00 9.97809E+00 2.17878E-02
 -1      3175-3.61078E-02 1.05151E+01 2.18039E-02
 -1      3176-3.33464E+00 2.07750E+01-2.73598E-03
 -1      3177-4.39052E+00 2.12295E+01 2.43945E-03
 -1      3178-4.15246E+00 2.05754E+01-2.16687E-03
 -1      3179-3.42683E+00 2.14665E+01 3.08516E-03
 -1      3180-2.18757E+00 2.10639E+01-2.50584E-03
 -1      3181-2.27127E+00 2.17600E+01 2.88295E-03
 -1      3182-5.30764E+00 2.03018E+01-2.34136E-03
 -1      3183-5.55435E+00 2.09515E+01 2.65212E-03
 -1      3184 4.40147E-01 6.38781E+00-2.68317E-02
 -1      3185-9.63920E-01 9.61389E+00 4.60873E-03
 -1      3186-1.77310E+00 1.00131E+01-6.10330E-03
 -1      3187-1.60750E+00 9.48981E+00 5.18533E-03
 -1      3188-1.00248E+00 1.01600E+01-5.59016E-03
 -1      3189-4.57286E+00 3.00091E+01-8.78878E-04
 -1      3190-5.70066E+00 2.93280E+01-2.93241E-04
 -1      3191-4.04197E+00 2.89650E+01-1.23395E-03
 -1      3192-5.16661E+00 2.82868E+01-4.75526E-04
 -1      3193-5.10984E+00 2.90148E+01-1.08454E-03
 -1      3194-1.85388E+00 6.02410E+00-2.74606E-02
 -1      3195-2.52273E+00 9.33448E+00 4.90940E-03
 -1      3196-2.70511E+00 9.85036E+00-5.82363E-03
 -1      3197-3.00207E-01 3.71159E-01-8.75974E-03
 -1      3198-6.31533E-02 9.80023E+00 4.82116E-03
 -1      3199-8.57500E-02 1.03548E+01-5.86035E-03
 -1      3200 4.89387E-01 1.36663E+00-3.60517E-02
 -1      3201 4.58135E-01 1.46711E+00-1.96571E-02
 -1      3202-7.68241E+00 3.15846E+01-3.75367E-04
 -1      3203-7.38158E+00 3.04706E+01-7.97515E-04
 -1      3204-1.59158E-01 1.21179E-01-9.58918E-03
 -1      3205-1.44631E-01 1.59916E-01 6.55605E-04
 -1      3206-2.47914E-01 2.64731E-01-8.99912E-03
 -1      3207-6.94639E+00 3.31628E+01 5.28853E-04
 -1      3208-6.35742E+00 3.33177E+01 5.23733E-04
 -1      3209-6.70971E+00 3.29440E+01 3.24656E-04
 -1      3210-6.12064E+00 3.30990E+01 4.24464E-04
 -1      3211-6.00208E+00 3.25811E+01 7.83260E-04
 -1      3212 1.07021E-01 9.23771E-01-3.62797E-03
 -1      3213 1.44253E-01 9.98191E-01-1.00594E-02
 -1      3214 1.06975E-01 1.30528E+00-3.57241E-03
 -1      3215-1.11749E-01 1.03124E-01 7.45082E-04
 -1      3216-1.16602E-01 7.43668E-02 9.12999E-03
 -1      3217-1.59964E-01 1.20220E-01 9.94658E-03
 -1      3218-7.53708E+00 3.29842E+01 4.96259E-04
 -1      3219-7.64921E+00 3.27226E+01 1.89774E-04
 -1      3220-6.94105E+00 3.23598E+01 3.71171E-04
 -1      3221-7.53165E+00 3.21812E+01 6.77709E-05
 -1      3222-1.16175E-01 7.49881E-02-8.61864E-03
 -1      3223-7.80403E+00 3.12266E+01-3.04587E-05
 -1      3224-7.65568E+00 3.06674E+01-3.62041E-06
 -1      3225-8.34975E+00 3.15433E+01-2.84344E-04
 -1      3226-8.20110E+00 3.09839E+01-3.64039E-04
 -1      3227-5.96420E+00 3.07424E+01 1.10729E-04
 -1      3228-4.61430E+00 3.07685E+01 5.74439E-04
 -1      3229-5.56928E+00 3.12805E+01 6.93156E-04
 -1      3230-2.61695E+00 1.59019E+01-7.75511E-05
 -1      3231-2.90231E+00 1.53570E+01 3.50921E-03
 -1      3232-1.64683E-01 2.45713E+00 7.05386E-05
 -1      3233 1.41709E-01 2.49637E+00-5.17033E-04
 -1      3234 3.70852E-02 9.80612E-02-7.64163E-03
 -1      3235-1.21494E-02 1.46058E-01 2.20344E-03
 -1      3236 4.80976E-02 2.46485E-01-6.78179E-03
 -1      3237-9.69406E-03 8.90184E-02 2.27498E-03
 -1      3238-4.91352E-02 9.22031E-02 1.19607E-02
 -1      3239-3.64766E-02 4.69749E-02 1.12052E-02
 -1      3240-3.86042E+00 2.82450E+01-1.36195E-03
 -1      3241-1.05160E+00 1.58599E+01-4.01680E-03
 -1      3242-2.18406E+00 1.59322E+01-1.12127E-03
 -1      3243-1.17758E+00 1.65026E+01-3.88003E-03
 -1      3244-4.57230E-01 1.29492E+01-5.46250E-03
 -1      3245-1.51280E+00 1.30308E+01-1.65689E-03
 -1      3246-5.61081E-01 1.35548E+01-5.31497E-03
 -1      3247-4.20626E+00 2.45135E+01-2.35304E-03
 -1      3248-4.38385E+00 2.52209E+01-2.25620E-03
 -1      3249-4.29619E+00 2.48694E+01-6.93184E-04
 -1      3250-3.18969E+00 2.55316E+01-1.94967E-03
 -1      3251-3.01826E+00 2.48215E+01-2.05256E-03
 -1      3252-1.45064E+00 1.27249E+01-5.52036E-03
 -1      3253-1.56983E+00 1.33244E+01-5.40595E-03
 -1      3254-2.11253E+00 1.56087E+01-4.01729E-03
 -1      3255-2.25123E+00 1.62459E+01-3.93019E-03
 -1      3256-5.83148E+00 3.04474E+01 9.14199E-04
 -1      3257-3.94058E+00 2.90739E+01 4.72698E-03
 -1      3258-4.34197E+00 1.63400E+01-3.92498E-03
 -1      3259-3.45953E+00 1.57204E+01-3.26627E-04
 -1      3260-6.87891E+00 2.79250E+01-4.60623E-05
 -1      3261-7.06938E+00 2.86417E+01-5.57779E-05
 -1      3262-7.67171E+00 2.88603E+01 7.94310E-04
 -1      3263-6.35455E+00 2.88186E+01 1.31692E-04
 -1      3264-7.47966E+00 2.81434E+01 9.25633E-04
 -1      3265 2.69723E-02 5.09914E-02-6.96128E-03
 -1      3266-4.03368E+00 2.33583E+01-1.91937E-03
 -1      3267-4.12214E+00 2.37113E+01-4.47932E-04
 -1      3268-3.76357E+00 2.42542E+01-2.00928E-03
 -1      3269-2.85637E+00 2.36607E+01-1.67014E-03
 -1      3270 3.11639E-01 1.02101E+00-1.09020E-02
 -1      3271-4.48038E+00 2.96482E+01-2.07375E-03
 -1      3272-3.95095E+00 2.86050E+01-2.87888E-03
 -1      3273 3.46592E-01 5.68603E-01 3.86165E-02
 -1      3274 7.05431E-02 5.53359E-01-7.73960E-03
 -1      3275 7.32884E-02 7.19780E-01-7.62697E-03
 -1      3276 7.02592E-02 6.49388E-01-2.16261E-03
 -1      3277 5.97971E-02 1.52800E+00-7.20028E-03
 -1      3278 3.22022E-01 6.00297E-01-9.30497E-03
 -1      3279 3.58905E-01 7.68342E-01-9.15898E-03
 -1      3280 4.68296E-01 1.59247E+00-8.52962E-03
 -1      3281-1.26883E-01 8.05473E-02-2.05810E-02
 -1      3282-8.11954E-02 6.18677E-02-2.22069E-02
 -1      3283-1.62329E-01 9.66685E-02-3.97362E-02
 -1      3284-2.15293E-01 2.02626E-01-2.13447E-02
 -1      3285-1.36365E-01 1.85300E-01-2.26545E-02
 -1      3286-8.38367E+00 3.15520E+01 1.71688E-04
 -1      3287-6.86434E+00 3.09061E+01-4.38942E-05
 -1      3288-8.11353E+00 3.08479E+01 4.20969E-04
 -1      3289-7.44212E+00 3.12319E+01 2.07474E-04
 -1      3290-8.31642E+00 3.14184E+01-6.08621E-04
 -1      3291-8.35483E+00 3.10837E+01-1.37286E-03
 -1      3292-8.01441E+00 3.03056E+01-8.45383E-04
 -1      3293-4.89906E+00 3.23093E+01-1.21642E-03
 -1      3294-4.86157E+00 3.11287E+01-1.49459E-03
 -1      3295 3.32765E-02 1.68381E-02 4.58087E-03
 -1      3296 2.85483E-02 1.54027E-02 4.98477E-03
 -1      3297 7.92751E-02 5.30632E-02 1.01428E-02
 -1      3298 2.89718E-02 1.64656E-02 9.83180E-04
 -1      3299-6.19654E+00 3.30793E+01 4.45211E-05
 -1      3300-6.17602E+00 3.31061E+01-3.22850E-04
 -1      3301-4.30054E+00 1.58573E+01 1.50770E-02
 -1      3302-1.99317E-02 9.61033E-03-3.29341E-03
 -1      3303-5.75261E-02 4.91487E-02 3.29479E-04
 -1      3304 2.01334E-01 2.63695E-01 7.15382E-03
 -1      3305 2.90684E-02 1.99054E-01 8.81255E-04
 -1      3306 7.94681E-02 1.51375E-01 7.70500E-03
 -1      3307-6.41901E+00 3.30206E+01 2.18895E-04
 -1      3308-3.17855E+00 2.52822E+01 4.07551E-03
 -1      3309-2.91387E+00 2.41972E+01 4.56876E-03
 -1      3310-6.40994E+00 2.44592E+01 3.53794E-03
 -1      3311-6.12702E+00 2.33860E+01 4.05587E-03
 -1      3312-5.79901E+00 2.46112E+01 3.39054E-03
 -1      3313-5.52063E+00 2.35351E+01 3.92698E-03
 -1      3314-3.78583E+00 2.51236E+01 4.20405E-03
 -1      3315-3.51616E+00 2.40407E+01 4.70336E-03
 -1      3316 3.95221E-02 2.26711E-01 5.53873E-03
 -1      3317-7.54144E+00 3.29831E+01-5.67095E-04
 -1      3318-6.95074E+00 3.31617E+01-5.94742E-04
 -1      3319-6.97488E+00 3.23684E+01-4.46153E-04
 -1      3320-7.68741E+00 3.27301E+01-2.65905E-04
 -1      3321-7.56549E+00 3.21898E+01-1.43873E-04
 -1      3322 1.16628E-01 8.95785E-02-1.84473E-02
 -1      3323 7.21523E-02 6.84269E-02-1.85039E-02
 -1      3324 1.49890E-01 1.08602E-01-3.63464E-02
 -1      3325 1.90979E-01 2.19427E-01-1.95511E-02
 -1      3326 1.14976E-01 1.96314E-01-1.89480E-02
 -1      3327-5.25808E+00 2.86448E+01-1.55831E-03
 -1      3328-5.84857E+00 2.89583E+01-3.76087E-04
 -1      3329-6.44785E+00 2.91771E+01 4.73778E-04
 -1      3330-5.76318E+00 2.85057E+01-2.53920E-04
 -1      3331-5.07328E+00 2.79261E+01-1.67376E-03
 -1      3332-6.25915E+00 2.84579E+01 6.09754E-04
 -1      3333-7.15608E+00 3.18738E+01-1.93078E-04
 -1      3334-6.71781E+00 3.21765E+01-3.00891E-04
 -1      3335-1.39530E+00 1.73831E+01-3.25981E-03
 -1      3336-2.41554E+00 1.68006E+01-9.23092E-04
 -1      3337-1.90592E+00 1.65063E+01-3.91633E-03
 -1      3338-1.43988E+00 1.21564E+01-1.06699E-03
 -1      3339-4.09443E-01 1.20714E+01-4.37380E-03
 -1      3340-1.06961E+00 1.26516E+01-5.56758E-03
 -1      3341-2.48564E+00 1.71196E+01-3.36426E-03
 -1      3342-1.38014E+00 1.18577E+01-4.21470E-03
 -1      3343-3.97284E+00 1.51295E+01 3.51682E-03
 -1      3344-4.17839E+00 1.57078E+01-4.07853E-03
 -1      3345-3.60998E-02 1.67169E-02 5.29959E-03
 -1      3346-3.50679E-02 1.71857E-02 2.61956E-05
 -1      3347-8.61712E-02 4.72473E-02 1.26853E-02
 -1      3348-8.42950E-02 4.78598E-02 3.02427E-03
 -1      3349-3.06741E-02 1.23862E-02 5.56764E-03
 -1      3350-5.53214E+00 3.21418E+01-1.36390E-03
 -1      3351-4.70730E+00 3.20347E+01-2.39396E-03
 -1      3352-5.49268E+00 3.09619E+01-1.55660E-03
 -1      3353 8.70269E-03-1.68495E-03-4.15719E-03
 -1      3354-2.30178E-03-2.98971E-03 1.87603E-03
 -1      3355-4.16890E-02 2.49538E-02 1.51843E-02
 -1      3356-7.47348E-03 5.58674E-03 2.26397E-03
 -1      3357-1.28889E-02 2.14282E-02 4.76398E-03
 -1      3358-2.35485E-01 2.51919E-01 8.13965E-03
 -1      3359-6.50486E-02 2.01835E-01 2.97197E-03
 -1      3360-1.01668E-01 1.46439E-01 1.06846E-02
 -1      3361-5.04345E+00 3.36655E+01-4.92905E-05
 -1      3362-5.03771E+00 3.36435E+01 3.31551E-04
 -1      3363-5.06245E+00 3.28295E+01 1.19431E-04
 -1      3364-5.05672E+00 3.28074E+01 6.35006E-04
 -1      3365-5.74719E+00 3.31976E+01 3.20436E-04
 -1      3366-6.45482E-02 2.28966E-01 9.80980E-03
 -1      3367-6.20866E+00 2.99465E+01 7.57042E-05
 -1      3368-1.93722E-01 1.19990E+00-8.64693E-03
 -1      3369 5.52473E-02 1.24982E+00 6.33541E-03
 -1      3370-7.75602E-02 1.38698E+00-4.76266E-04
 -1      3371-5.30199E-02 1.06242E+00-5.29795E-04
 -1      3372 1.81377E-01 1.11278E+00 7.61437E-03
 -1      3373 6.18987E-02 9.39247E-01 6.42789E-03
 -1      3374-5.79350E+00 2.96875E+01-8.98165E-04
 -1      3375-6.90468E+00 2.64594E+01-1.05059E-03
 -1      3376-6.25724E+00 2.71785E+01 2.10814E-07
 -1      3377-6.96941E+00 2.65472E+01 1.06553E-03
 -1      3378-6.69349E+00 2.55170E+01 1.24769E-03
 -1      3379-6.04862E+00 2.62302E+01 1.10044E-03
 -1      3380-5.98489E+00 2.61430E+01 8.17878E-06
 -1      3381-5.69335E+00 2.67681E+01-7.33673E-04
 -1      3382-4.90517E+00 2.70761E+01 1.60912E-03
 -1      3383-5.40249E+00 2.73985E+01 2.27679E-04
 -1      3384-5.13442E+00 2.63605E+01 2.28856E-04
 -1      3385-4.34819E+00 2.66679E+01 1.55428E-03
 -1      3386-4.64048E+00 2.60389E+01 1.77753E-03
 -1      3387-2.92850E-01 1.07521E+00-7.72213E-03
 -1      3388-1.62392E-01 9.49386E-01-8.93334E-03
 -1      3389-3.76472E-02 8.27070E-01-5.81217E-04
 -1      3390-2.17253E-01 2.14513E+00-2.04468E-03
 -1      3391-3.65600E+00 1.68323E+01-5.54538E-04
 -1      3392-5.00556E+00 2.21779E+01 2.91458E-04
 -1      3393-4.03067E+00 2.24184E+01 4.93929E-04
 -1      3394-4.30220E+00 2.23509E+01 1.51915E-04
 -1      3395-3.32936E+00 2.25951E+01 3.60305E-04
 -1      3396-2.99802E+00 1.69809E+01-4.93004E-04
 -1      3397-2.26339E-03-3.19357E-03-1.80657E-03
 -1      3398 8.77827E-03-1.84655E-03 4.26465E-03
 -1      3399-1.20939E-02 2.23413E-02-4.39157E-03
 -1      3400-7.09604E-03 5.89423E-03-2.04638E-03
 -1      3401-4.11216E-02 2.57267E-02-1.47741E-02
 -1      3402-6.68207E+00 2.56149E+01-1.17517E-03
 -1      3403-5.97279E+00 2.62409E+01-9.73521E-04
 -1      3404-5.76688E+00 2.52990E+01 2.19753E-05
 -1      3405-5.47616E+00 2.59200E+01-8.64238E-04
 -1      3406-4.92067E+00 2.55140E+01 2.27953E-04
 -1      3407-1.66495E+00 1.09049E+01-9.21192E-04
 -1      3408-2.53640E-02 3.07782E-01-1.60407E-03
 -1      3409-5.51035E+00 3.01297E+01-1.12762E-04
 -1      3410-5.08775E-01 2.12341E+00-1.39792E-03
 -1      3411-3.54098E+00 2.38556E+01-4.36959E-03
 -1      3412-3.71008E+00 2.50166E+01-4.61276E-03
 -1      3413-2.93956E+00 2.40114E+01-4.20217E-03
 -1      3414-3.10324E+00 2.51751E+01-4.48586E-03
 -1      3415 5.47277E-02 4.38619E-01-1.62800E-03
 -1      3416 2.57213E-01 3.98972E-01-8.30998E-03
 -1      3417 1.52188E-01 5.31536E-01-8.90632E-03
 -1      3418-8.75768E-01 1.10659E+01-7.85306E-04
 -1      3419-8.84048E+00 3.26422E+01-8.60067E-05
 -1      3420-8.84636E+00 3.26642E+01-5.08989E-05
 -1      3421-8.45455E+00 3.19389E+01-2.78385E-04
 -1      3422-8.46050E+00 3.19609E+01-1.07566E-04
 -1      3423-8.02862E+00 3.26231E+01 2.32383E-05
 -1      3424-4.99260E-01 9.52698E-01-7.49639E-03
 -1      3425-5.69909E-01 1.19702E+00-7.27650E-03
 -1      3426-5.01308E-01 9.27313E-01 8.47360E-03
 -1      3427-2.98663E-01 1.05116E+00 3.99553E-04
 -1      3428-2.55233E-01 8.19650E-01 3.79366E-04
 -1      3429-2.23715E+00 1.07962E+01-8.07507E-04
 -1      3430-1.44429E+00 1.09486E+01-6.67433E-04
 -1      3431-1.03695E+00 8.77378E+00 6.58966E-04
 -1      3432-1.76927E+00 8.64396E+00 8.87597E-04
 -1      3433 1.06043E-01 3.21650E-01-4.43748E-04
 -1      3434 5.39423E-02 3.57553E-01-6.59314E-03
 -1      3435-1.99845E+00 1.48649E+01 3.63432E-03
 -1      3436-2.25423E+00 1.44303E+01 1.59641E-04
 -1      3437-2.52045E+00 1.39009E+01-3.40617E-03
 -1      3438-1.80949E+00 1.39669E+01 3.76467E-03
 -1      3439-2.06221E+00 1.35426E+01 1.30389E-04
 -1      3440-1.53729E+00 1.45003E+01 3.88417E-03
 -1      3441-3.56632E-01 1.37100E+00 4.15935E-04
 -1      3442-5.89741E-01 1.22598E+00 8.22008E-03
 -1      3443-3.13969E-01 1.07461E+00 9.15106E-03
 -1      3444-6.69355E+00 3.29698E+01-3.93727E-04
 -1      3445-5.98160E+00 3.26080E+01-8.62974E-04
 -1      3446-1.31350E-02-2.82393E-03 8.40539E-03
 -1      3447-2.22733E-02 7.38107E-03 7.19758E-03
 -1      3448-2.03489E+00 2.03797E+01-2.65971E-03
 -1      3449-2.91196E+00 2.05229E+01-2.33813E-04
 -1      3450-2.06214E+00 2.02009E+01 2.17066E-03
 -1      3451-1.74945E+00 1.94040E+01-3.48011E-03
 -1      3452-2.61399E+00 1.95479E+01-5.05288E-04
 -1      3453-2.58733E+00 1.97234E+01-3.47353E-03
 -1      3454-3.88097E+00 1.97530E+01 1.84598E-03
 -1      3455-3.59846E+00 2.03538E+01-3.45143E-04
 -1      3456-3.17269E+00 2.00951E+01-2.84819E-03
 -1      3457-2.87279E+00 1.91251E+01-3.63382E-03
 -1      3458-3.29200E+00 1.93825E+01-6.12603E-04
 -1      3459-7.71613E+00 2.91874E+01-3.52401E-04
 -1      3460-6.99897E+00 2.93654E+01 1.55574E-04
 -1      3461-1.70321E+00 1.47857E+01-5.20008E-03
 -1      3462-2.15471E+00 1.43607E+01-9.58842E-04
 -1      3463-1.57723E+00 1.41656E+01-5.36496E-03
 -1      3464-8.80472E-01 7.01816E+00 6.84325E-04
 -1      3465-1.16077E+00 7.20770E+00 5.99281E-03
 -1      3466-6.41353E-01 7.41360E+00-4.08501E-03
 -1      3467-1.05390E+00 7.71956E+00 1.18322E-03
 -1      3468-1.34677E+00 7.91472E+00 6.90729E-03
 -1      3469-1.58215E+00 7.51195E+00 6.93822E-03
 -1      3470 2.27032E-01 7.46200E+00 5.37650E-03
 -1      3471-3.08015E-01 7.11840E+00 3.58575E-04
 -1      3472 1.70159E-01 7.57018E+00-4.51363E-03
 -1      3473 1.94690E-01 8.20766E+00 6.36807E-03
 -1      3474-3.58874E-01 7.84741E+00 8.71040E-04
 -1      3475-2.96462E-01 7.73502E+00 6.46206E-03
 -1      3476-7.92003E-01 7.03263E+00 1.19069E-04
 -1      3477-5.88228E-01 7.31112E+00 4.94717E-03
 -1      3478-8.61412E-01 7.75453E+00 6.43366E-04
 -1      3479-6.16314E+00 3.21132E+01-8.73470E-04
 -1      3480-6.00701E+00 3.15548E+01-9.79954E-04
 -1      3481-6.73068E+00 3.06111E+01 1.12474E-05
 -1      3482-6.44938E+00 3.14708E+01-3.87817E-04
 -1      3483-6.88721E+00 3.11685E+01-6.68180E-05
 -1      3484 5.55955E-01 2.16106E+00-3.38919E-02
 -1      3485 5.69780E-01 2.46379E+00-3.32578E-02
 -1      3486 5.01246E-01 2.54002E+00-1.69488E-02
 -1      3487 2.42157E-01 2.49534E+00-1.63473E-02
 -1      3488-6.30048E+00 2.95473E+01-3.48577E-05
 -1      3489-4.59610E+00 2.78420E+01-1.16573E-04
 -1      3490-4.01216E+00 2.55260E+01-1.19776E-04
 -1      3491-4.85579E+00 2.53088E+01-3.40585E-04
 -1      3492-3.06610E-02 1.40295E-02-1.13367E-03
 -1      3493-8.45023E-02 4.68629E-02-1.16358E-02
 -1      3494-7.96485E+00 3.02893E+01 5.40456E-04
 -1      3495-1.24870E+00 1.35762E+01-5.58974E-04
 -1      3496-1.70474E+00 1.55268E+01-2.31595E-04
 -1      3497-1.98928E+00 7.08712E+00 5.68608E-03
 -1      3498-1.36780E+00 6.94178E+00 3.94908E-04
 -1      3499-1.56018E+00 7.63735E+00 9.24472E-04
 -1      3500-2.70084E+00 1.46233E+01-3.31542E-03
 -1      3501-2.95167E+00 1.41934E+01-3.14252E-03
 -1      3502-2.43198E+00 1.51619E+01 8.33653E-05
 -1      3503-7.16047E+00 2.72604E+01 9.28070E-04
 -1      3504-6.03929E+00 2.79316E+01 1.02832E-04
 -1      3505-6.63727E+00 2.81502E+01 9.01546E-04
 -1      3506-2.47316E+00 1.53869E+01-1.88570E-04
 -1      3507 3.40172E-02 2.74509E-02-1.07905E-02
 -1      3508 1.73552E-02 9.58227E-03-4.43118E-03
 -1      3509-3.36764E+00 1.22205E+01-1.90829E-02
 -1      3510-6.80604E+00 2.52790E+01 6.15840E-03
 -1      3511-6.87368E+00 2.61911E+01 2.74455E-03
 -1      3512-6.25660E+00 2.63473E+01 2.59788E-03
 -1      3513-5.98473E+00 2.53169E+01 3.07655E-03
 -1      3514-6.59834E+00 2.51630E+01 3.21348E-03
 -1      3515-3.22508E+00 2.61970E+01 7.13604E-03
 -1      3516-3.60796E+00 2.70330E+01 3.30376E-03
 -1      3517-4.22207E+00 2.68714E+01 3.46529E-03
 -1      3518-3.96222E+00 2.58344E+01 3.90278E-03
 -1      3519-3.35196E+00 2.59943E+01 3.75812E-03
 -1      3520-6.99644E+00 2.59869E+01 5.58537E-03
 -1      3521-6.44526E+00 2.70607E+01 2.24637E-03
 -1      3522-3.40081E+00 2.69129E+01 6.57537E-03
 -1      3523-4.40338E+00 2.75888E+01 3.12828E-03
 -1      3524-3.57864E+00 2.76312E+01 5.95774E-03
 -1      3525-3.78684E+00 2.77513E+01 2.99301E-03
 -1      3526-7.18772E+00 2.66978E+01 4.95913E-03
 -1      3527-7.06438E+00 2.69029E+01 2.42608E-03
 -1      3528-1.96684E+00 1.34187E+01-5.93303E-04
 -1      3529-3.21819E-02 7.72005E-01 5.78658E-04
 -1      3530-7.15544E-01 1.46802E+01 1.75524E-02
 -1      3531-8.31409E-01 1.53098E+01 1.69622E-02
 -1      3532-1.41640E+00 1.46692E+01 8.90649E-03
 -1      3533-1.54206E+00 1.52966E+01 8.61067E-03
 -1      3534-1.01024E+00 1.54234E+01 8.58454E-03
 -1      3535-8.20168E-02 6.07121E-02 2.28636E-02
 -1      3536-1.27023E-01 7.94679E-02 2.12340E-02
 -1      3537-1.62101E-01 9.64156E-02 3.98099E-02
 -1      3538-1.27201E-01 1.74477E-01 2.15482E-02
 -1      3539-2.03491E-01 1.91115E-01 2.03924E-02
 -1      3540 2.01704E-01 1.49137E+00-4.42279E-04
 -1      3541-5.72664E+00 3.32247E+01-1.34460E-04
 -1      3542-5.04184E+00 3.28563E+01-6.92701E-04
 -1      3543-3.84078E+00 1.90255E+01 3.06033E-03
 -1      3544-3.25759E+00 1.86579E+01-1.47757E-04
 -1      3545-4.26589E+00 1.92821E+01 2.67206E-03
 -1      3546-1.78780E+00 1.95815E+01 3.39852E-03
 -1      3547-2.65401E+00 1.97240E+01 2.94978E-03
 -1      3548-2.33750E+00 1.89344E+01-2.08160E-05
 -1      3549-8.12908E-02 1.45811E+00 4.53641E-04
 -1      3550-4.05062E-01 5.25077E-01-4.07690E-02
 -1      3551-8.49432E+00 3.19695E+01 1.73235E-04
 -1      3552-8.06262E+00 3.26318E+01-6.86110E-05
 -1      3553 4.25243E-01 9.25198E-01 3.73552E-02
 -1      3554 4.59536E-01 1.13400E+00 3.66365E-02
 -1      3555 2.15760E-01 8.57610E-01 1.83045E-02
 -1      3556 4.01932E-01 1.09030E+00 1.87167E-02
 -1      3557 3.71486E-01 8.86920E-01 1.90867E-02
 -1      3558-7.34316E-01 3.59265E+00 5.02669E-04
 -1      3559 1.76197E-01 7.95744E-01-4.71176E-04
 -1      3560-5.31258E-01 2.42456E+00-6.08020E-04
 -1      3561-2.22015E-01 2.45108E+00-1.20200E-03
 -1      3562-2.89081E+00 1.73726E+01-3.30465E-04
 -1      3563-4.40844E+00 2.30737E+01-4.93946E-05
 -1      3564-5.11602E+00 2.28981E+01 9.38875E-05
 -1      3565-4.27747E+00 2.31065E+01 2.87216E-04
 -1      3566-3.57157E+00 2.32852E+01 1.37669E-04
 -1      3567-2.23192E+00 1.75285E+01-2.75354E-04
 -1      3568-1.72451E+00 1.14933E+01-4.43058E-04
 -1      3569-1.03793E+00 1.16361E+01-3.35931E-04
 -1      3570-2.30667E+00 1.13797E+01-3.56723E-04
 -1      3571-1.61698E+00 1.15152E+01-2.62351E-04
 -1      3572-3.66491E-01 3.63304E+00 1.02794E-03
 -1      3573 6.75901E-02 3.69254E+00 4.74196E-04
 -1      3574-5.41220E-01 5.42926E+00-9.35126E-05
 -1      3575-1.05907E+00 5.35733E+00-5.04674E-04
 -1      3576-1.07959E-01 5.49971E+00-4.49013E-04
 -1      3577-2.97033E-01 3.64055E+00-2.86551E-06
 -1      3578 2.10357E-01 8.07299E+00-6.63836E-03
 -1      3579-3.39176E-01 7.71305E+00-5.63862E-03
 -1      3580-3.32278E-01 8.35519E+00-1.98326E-05
 -1      3581-6.20717E-01 7.90734E+00-6.23404E-03
 -1      3582-1.04307E+00 8.21957E+00 2.73727E-04
 -1      3583-6.22569E-01 5.41733E+00-8.70737E-04
 -1      3584-1.34505E-02-2.40965E-03-8.34570E-03
 -1      3585-2.26996E-02 8.03971E-03-6.83770E-03
 -1      3586-7.96286E+00 2.95727E+01-2.60709E-03
 -1      3587-8.15361E+00 3.03288E+01-1.96655E-03
 -1      3588-7.81345E+00 2.95524E+01-1.13773E-03
 -1      3589-7.19212E+00 2.97138E+01-1.08986E-03
 -1      3590-2.79779E+00 1.87960E+01-1.10551E-03
 -1      3591-3.80046E+00 1.94212E+01 4.12462E-04
 -1      3592-3.76158E+00 1.86977E+01 9.14306E-04
 -1      3593-2.88108E+00 2.47735E+01-8.44105E-03
 -1      3594-8.96707E+00 3.26323E+01-1.43684E-05
 -1      3595-8.18295E+00 3.26000E+01-9.46115E-05
 -1      3596-7.89904E+00 2.98723E+01-3.07440E-04
 -1      3597-6.31705E+00 3.33283E+01-6.15848E-04
 -1      3598-6.05969E+00 3.31366E+01-5.43398E-04
 -1      3599-1.55309E-01 1.21608E+00-1.00753E-03
 -1      3600 9.39898E-02 1.26785E+00 1.60527E-03
 -1      3601 9.55999E-02 9.57104E-01 1.60370E-03
 -1      3602-4.05362E-01 5.25795E-01 4.07543E-02
 -1      3603-7.09555E+00 2.71723E+01-8.78172E-04
 -1      3604-1.28128E-01 9.65362E-01-1.05742E-03
 -1      3605-3.57246E+00 1.36002E+01 3.68496E-03
 -1      3606-2.96924E+00 1.41042E+01 2.56829E-04
 -1      3607-3.75328E+00 1.44035E+01-2.97578E-03
 -1      3608-3.81523E+00 1.45119E+01 3.70126E-03
 -1      3609-3.20125E+00 1.50297E+01 3.42779E-04
 -1      3610-3.02792E+00 1.42106E+01 3.94046E-03
 -1      3611-5.56020E+00 2.68041E+01-9.13779E-05
 -1      3612-4.77191E+00 2.71124E+01 3.42760E-04
 -1      3613-4.50815E+00 2.60751E+01 3.69766E-04
 -1      3614-5.62413E+00 2.68921E+01 9.86080E-05
 -1      3615-5.35560E+00 2.58573E+01 1.61368E-04
 -1      3616-1.34523E-01 9.37463E-01 2.52525E-03
 -1      3617-3.11999E+00 1.95847E+01 5.19692E-04
 -1      3618-2.83831E+00 1.89715E+01 1.05094E-03
 -1      3619-3.67231E+00 1.33805E+01 1.78577E-02
 -1      3620-3.82641E+00 1.39826E+01 1.71773E-02
 -1      3621-2.97583E+00 1.33843E+01 9.31862E-03
 -1      3622-3.64748E+00 1.38998E+01 8.79491E-03
 -1      3623-3.49604E+00 1.32986E+01 9.14092E-03
 -1      3624-6.88102E-01 7.66941E+00-9.39692E-04
 -1      3625-6.68900E-01 8.17045E+00-1.78084E-03
 -1      3626-3.61354E-02 1.70385E-02-5.80980E-03
 -1      3627-3.22714E-02 1.34814E-02-6.50022E-03
 -1      3628-6.59026E-01 1.27305E+00 3.76682E-02
 -1      3629-5.94452E-01 1.05857E+00 3.85328E-02
 -1      3630-6.21389E-01 1.33746E+00 1.94816E-02
 -1      3631-3.72715E-01 1.11020E+00 2.05210E-02
 -1      3632-4.16705E-01 1.33182E+00 2.00038E-02
 -1      3633-5.34379E+00 2.59559E+01-9.74171E-05
 -1      3634-1.69991E-01 1.24410E+00 2.42672E-03
 -1      3635-3.09485E+00 1.97613E+01-7.76083E-04
 -1      3636-4.97976E+00 3.36824E+01-4.26491E-04
 -1      3637-5.66306E+00 3.32413E+01-4.41285E-04
 -1      3638-6.24969E-01 7.56098E+00 1.29014E-03
 -1      3639-2.78624E+00 1.33920E+01 8.68568E-05
 -1      3640-1.21432E+00 7.46024E+00 1.57099E-03
 -1      3641-5.27732E-01 8.55691E-01 3.92899E-02
 -1      3642-5.57053E-01 1.11035E+00 1.99466E-02
 -1      3643-3.10219E-01 8.21159E-01 2.11876E-02
 -1      3644-4.69979E-01 8.25699E-01 2.05537E-02
 -1      3645-1.88303E+00 1.48975E+01 8.62296E-04
 -1      3646-2.40705E+00 1.39319E+01-3.80427E-04
 -1      3647-1.69650E+00 1.39989E+01 8.53579E-04
 -1      3648-2.23543E-01 1.72417E-01-4.15294E-02
 -1      3649-1.74634E-01 2.90772E-01-2.26866E-02
 -1      3650 1.65751E-02 1.16180E-02 1.86343E-03
 -1      3651-3.94055E+00 2.90739E+01-4.79145E-03
 -1      3652-5.10183E+00 2.94840E+01-2.04977E-03
 -1      3653-4.57001E+00 2.84414E+01-3.06247E-03
 -1      3654-3.99220E+00 1.46266E+01 1.65172E-02
 -1      3655-3.12818E+00 1.40219E+01 8.93562E-03
 -1      3656-3.89262E+00 1.48177E+01 8.51998E-03
 -1      3657-3.36325E+00 1.49452E+01 8.61027E-03
 -1      3658-4.29376E+00 3.05109E+01-3.67209E-03
 -1      3659-4.49032E+00 3.12749E+01-3.00547E-03
 -1      3660-4.66442E+00 3.03652E+01-1.80589E-03
 -1      3661-5.27535E+00 3.02037E+01-1.86139E-03
 -1      3662-1.46251E-01 3.18171E-01-2.69152E-04
 -1      3663 1.76821E-02 9.78106E-03 4.49367E-03
 -1      3664 3.42355E-02 2.79260E-02 1.07830E-02
 -1      3665-3.55665E+00 1.36892E+01-3.36972E-03
 -1      3666-1.16062E-02 3.16588E-01 7.24080E-04
 -1      3667-5.96675E+00 3.03765E+01-8.78851E-04
 -1      3668-6.40832E+00 3.02931E+01-1.43377E-04
 -1      3669-2.84706E-01 2.71432E-01-4.19597E-02
 -1      3670-2.72333E-01 3.07716E-01-2.14929E-02
 -1      3671 2.03043E-01 1.90627E-01-3.85254E-02
 -1      3672 2.36712E-01 3.31406E-01-1.99483E-02
 -1      3673-2.58538E+00 1.46547E+01-3.33149E-04
 -1      3674-1.52227E+00 1.54116E+01-9.25885E-03
 -1      3675-1.97962E+00 1.49785E+01-4.15635E-03
 -1      3676-1.69517E+00 1.39322E+01-5.19396E-03
 -1      3677 2.57101E-01 2.98266E-01-3.95997E-02
 -1      3678 1.44443E-01 3.07930E-01-1.93404E-02
 -1      3679-6.80606E+00 2.52790E+01-6.25932E-03
 -1      3680-6.99646E+00 2.59868E+01-5.66812E-03
 -1      3681-6.99957E+00 2.68150E+01-2.39441E-03
 -1      3682-6.19238E+00 2.62595E+01-2.51973E-03
 -1      3683-6.80907E+00 2.61035E+01-2.70518E-03
 -1      3684-7.18768E+00 2.66978E+01-5.03123E-03
 -1      3685-6.38076E+00 2.69726E+01-2.22742E-03
 -1      3686-5.97315E+00 2.54149E+01-2.92322E-03
 -1      3687-6.58701E+00 2.52607E+01-3.07363E-03
 -1      3688-1.11639E+00 1.45972E+01-9.79217E-04
 -1      3689-9.29931E-01 1.52245E+01-4.17724E-03
 -1      3690-3.85957E+00 2.67959E+01-4.13667E-04
 -1      3691-3.36369E+00 2.62446E+01-1.78315E-03
 -1      3692-5.06383E+00 2.64825E+01-7.12294E-04
 -1      3693-4.56341E+00 2.59314E+01-2.08369E-03
 -1      3694-2.66565E-02 1.08689E+00-6.26008E-04
 -1      3695 7.37958E-02 9.06527E-01-7.50298E-03
 -1      3696 3.22029E-01 1.13331E+00-1.98532E-03
 -1      3697 3.92900E-01 9.58970E-01-9.02162E-03
 -1      3698-4.92058E+00 3.22858E+01 1.13209E-03
 -1      3699-5.55265E+00 3.21149E+01 1.25111E-03
 -1      3700-4.70818E+00 3.20382E+01 2.33231E-03
 -1      3701-4.72666E+00 3.12035E+01 1.38679E-03
 -1      3702-5.35717E+00 3.10330E+01 1.57828E-03
 -1      3703-5.28834E-01 8.59040E-01-3.91766E-02
 -1      3704-3.55934E-01 1.08272E+00-1.94429E-02
 -1      3705-5.38941E-01 1.08645E+00-1.87429E-02
 -1      3706-4.69406E-01 8.53281E-01-1.92498E-02
 -1      3707-3.06550E-01 8.46352E-01-2.00422E-02
 -1      3708-5.93181E-01 1.05461E+00-3.84137E-02
 -1      3709-5.99695E-01 1.30308E+00-1.82910E-02
 -1      3710-6.57713E-01 1.26872E+00-3.75438E-02
 -1      3711-3.98667E-01 1.30196E+00-1.89717E-02
 -1      3712-8.67584E-01 2.01951E+00 3.52650E-02
 -1      3713-5.84595E-01 2.33409E+00 1.66806E-02
 -1      3714-9.42239E-01 2.30463E+00 3.44813E-02
 -1      3715-8.47180E-01 2.32261E+00 1.61430E-02
 -1      3716-2.71306E+00 2.40665E+01-9.01722E-03
 -1      3717-2.77306E+00 2.33088E+01-4.48479E-03
 -1      3718-2.54785E+00 2.33630E+01-9.64453E-03
 -1      3719-3.37085E+00 2.31546E+01-4.62683E-03
 -1      3720-6.24104E+00 2.31772E+01-8.12667E-03
 -1      3721-5.83211E+00 2.25428E+01-4.08048E-03
 -1      3722-2.38557E+00 2.26634E+01-1.02626E-02
 -1      3723-6.05524E+00 2.24847E+01-8.76828E-03
 -1      3724-5.23006E+00 2.26894E+01-3.91094E-03
 -1      3725-5.87092E+00 2.17968E+01-9.42307E-03
 -1      3726-4.46579E+00 1.64914E+01 1.44608E-02
 -1      3727-3.85922E+00 1.73099E+01 6.32382E-03
 -1      3728-4.63365E+00 1.71325E+01 1.37991E-02
 -1      3729-4.42486E+00 1.71846E+01 6.38528E-03
 -1      3730-1.21088E+00 1.72414E+01 1.50789E-02
 -1      3731-1.55630E+00 1.78533E+01 6.66818E-03
 -1      3732-1.34454E+00 1.78993E+01 1.44566E-02
 -1      3733-2.11585E+00 1.77160E+01 6.74200E-03
 -1      3734-1.01939E+00 2.60665E+00 3.37434E-02
 -1      3735-1.64086E+00 5.16315E+00 2.87131E-02
 -1      3736-1.74218E+00 5.58727E+00 2.79700E-02
 -1      3737-1.13370E+00 5.23171E+00 1.37274E-02
 -1      3738-1.50542E+00 5.18999E+00 1.33804E-02
 -1      3739-3.22270E+00 1.16451E+01 1.96985E-02
 -1      3740-2.89917E+00 1.11210E+01 9.46302E-03
 -1      3741-3.08091E+00 1.10795E+01 2.03869E-02
 -1      3742-2.40349E+00 1.12111E+01 9.55773E-03
 -1      3743-2.97769E-01 1.22450E+01 1.99919E-02
 -1      3744-3.92374E-01 1.16257E+01 9.51042E-03
 -1      3745 5.83181E-01 3.47566E+00-3.13295E-02
 -1      3746 4.58117E-01 3.83826E+00-1.40472E-02
 -1      3747 5.77976E-01 3.84608E+00-3.06743E-02
 -1      3748 1.45957E-01 3.78337E+00-1.36175E-02
 -1      3749-2.06692E-01 1.16583E+01 2.06064E-02
 -1      3750-8.80287E-01 1.15175E+01 9.36614E-03
 -1      3751 5.80941E-01 2.78442E+00 3.26511E-02
 -1      3752 4.71163E-01 2.46162E+00 1.52581E-02
 -1      3753 5.71349E-01 2.46399E+00 3.33146E-02
 -1      3754 2.17145E-01 2.41864E+00 1.46754E-02
 -1      3755 5.57451E-01 2.16119E+00 3.40127E-02
 -1      3756-1.18923E-01 1.10816E+01 2.12467E-02
 -1      3757-2.94242E+00 1.05237E+01 2.10937E-02
 -1      3758 4.76088E-01 5.92828E+00 2.74652E-02
 -1      3759 3.67019E-01 5.46865E+00 1.29236E-02
 -1      3760-1.27481E+00 3.60897E+00-3.18106E-02
 -1      3761-1.18882E+00 3.25864E+00-3.25961E-02
 -1      3762-8.37686E-01 3.65729E+00-1.54340E-02
 -1      3763-1.15030E+00 3.63264E+00-1.48122E-02
 -1      3764 3.99099E-01 6.85975E+00-2.64458E-02
 -1      3765 3.61076E-01 7.34649E+00-2.59926E-02
 -1      3766 1.97840E-01 7.32433E+00-1.19677E-02
 -1      3767-2.03646E-01 7.24461E+00-1.17471E-02
 -1      3768 5.10258E-01 5.48117E+00 2.82354E-02
 -1      3769 7.04229E-03 5.39942E+00 1.25947E-02
 -1      3770-2.18795E+00 7.41533E+00-2.53468E-02
 -1      3771-1.50265E+00 7.02879E+00-1.25123E-02
 -1      3772-1.96210E+00 6.47472E+00-2.68534E-02
 -1      3773-1.91400E+00 6.96989E+00-1.21448E-02
 -1      3774-2.42442E+00 1.38412E+01 8.80824E-04
 -1      3775-2.64414E+00 1.47637E+01 8.81610E-04
 -1      3776-2.07334E+00 6.94043E+00-2.61035E-02
 -1      3777-2.69203E+00 2.05723E+01-6.25218E-03
 -1      3778-2.11020E+00 2.07198E+01-6.16269E-03
 -1      3779-1.91806E+00 2.05908E+01-1.20818E-02
 -1      3780-2.39640E+00 1.95954E+01-7.48758E-03
 -1      3781-1.82179E+00 1.97400E+01-7.38176E-03
 -1      3782-2.43098E+00 8.40423E+00-2.41109E-02
 -1      3783-2.37671E+00 8.95183E+00-1.08600E-02
 -1      3784-7.76901E+00 2.88489E+01-3.21855E-03
 -1      3785-2.55556E+00 8.91606E+00-2.33680E-02
 -1      3786-1.92747E+00 9.02815E+00-1.11055E-02
 -1      3787-2.23332E-01 1.72123E-01 4.16001E-02
 -1      3788-1.64116E-01 2.77401E-01 2.16353E-02
 -1      3789 7.24924E-02 6.91766E-02 1.84328E-02
 -1      3790 1.17388E-01 9.05611E-02 1.82626E-02
 -1      3791 1.50055E-01 1.08834E-01 3.62955E-02
 -1      3792 1.03664E-01 1.78474E-01 1.72025E-02
 -1      3793 1.76166E-01 2.00775E-01 1.77463E-02
 -1      3794-1.52076E+00 6.90865E+00 1.38524E-02
 -1      3795-1.93376E+00 6.85208E+00 1.36846E-02
 -1      3796-2.06906E+00 6.93852E+00 2.60837E-02
 -1      3797-1.71887E+00 7.60184E+00 1.48022E-02
 -1      3798-2.14788E+00 7.53992E+00 1.46950E-02
 -1      3799-1.49996E-01 7.14008E+00 1.30342E-02
 -1      3800 2.53591E-01 7.21757E+00 1.32556E-02
 -1      3801 3.56340E-01 7.34966E+00 2.57187E-02
 -1      3802-1.94716E-01 7.87093E+00 1.41258E-02
 -1      3803 2.24418E-01 7.95396E+00 1.43546E-02
 -1      3804-4.12235E+00 2.97902E+01-4.26280E-03
 -1      3805-2.71807E+00 2.03936E+01 5.64558E-03
 -1      3806-2.13740E+00 2.05403E+01 5.56628E-03
 -1      3807-1.91806E+00 2.05907E+01 1.20046E-02
 -1      3808-2.77880E+00 2.12635E+01 6.60973E-03
 -1      3809-2.19248E+00 2.14134E+01 6.50411E-03
 -1      3810-2.99993E+00 2.12123E+01 2.64721E-03
 -1      3811-4.52579E+00 1.99553E+01 5.08391E-03
 -1      3812-5.11167E+00 1.98186E+01 5.17851E-03
 -1      3813-5.32843E+00 1.97631E+01 1.12206E-02
 -1      3814-4.87162E+00 2.07507E+01 5.92659E-03
 -1      3815-5.46344E+00 2.06111E+01 6.01877E-03
 -1      3816-4.65318E+00 2.08071E+01 2.31606E-03
 -1      3817-1.24059E+00 1.37726E+01 9.36450E-03
 -1      3818-9.50897E-01 1.51094E+01 3.63824E-03
 -1      3819-7.82368E-01 1.42029E+01 3.84507E-03
 -1      3820-8.38486E-01 1.45110E+01 9.03929E-03
 -1      3821-7.25697E-01 1.38925E+01 9.35921E-03
 -1      3822-2.84434E-01 2.70977E-01 4.20234E-02
 -1      3823-2.59195E-01 2.93539E-01 2.06509E-02
 -1      3824 5.14483E-01 4.32293E+00-1.71825E-02
 -1      3825 1.86193E-01 4.26251E+00-1.67862E-02
 -1      3826 6.02611E-02 4.25364E+00-6.57624E-03
 -1      3827-1.47199E+00 4.67749E+00 1.71615E-02
 -1      3828-1.11486E+00 4.71296E+00 1.75597E-02
 -1      3829-9.85685E-01 4.73906E+00 7.13196E-03
 -1      3830-3.69740E+00 2.73926E+01 1.29645E-03
 -1      3831-3.43988E+00 2.63522E+01 1.49609E-03
 -1      3832-5.75737E+00 2.68562E+01 7.56684E-04
 -1      3833-5.48799E+00 2.58215E+01 9.53462E-04
 -1      3834 2.42453E-01 1.38663E+00 1.74356E-02
 -1      3835 2.28346E-01 1.05881E+00 1.78856E-02
 -1      3836 4.27019E-01 1.30738E+00 7.59590E-03
 -1      3837 4.39765E-01 1.42110E+00 1.81879E-02
 -1      3838 3.86553E-01 9.90994E-01 7.84478E-03
 -1      3839-1.76909E+00 1.99095E+01-1.26454E-02
 -1      3840-1.62377E+00 1.92337E+01-1.32496E-02
 -1      3841-2.24599E+00 1.89235E+01-7.82122E-03
 -1      3842-1.67662E+00 1.90660E+01-7.76909E-03
 -1      3843-5.68833E+00 2.11137E+01 9.96819E-03
 -1      3844-5.50741E+00 2.04358E+01 1.06141E-02
 -1      3845-5.64401E+00 2.12904E+01 5.64836E-03
 -1      3846-5.04816E+00 2.14325E+01 5.52386E-03
 -1      3847-2.07061E+00 2.12770E+01 1.14310E-02
 -1      3848-2.94035E+00 2.19532E+01 6.24009E-03
 -1      3849-2.22643E+00 2.19680E+01 1.08139E-02
 -1      3850-2.34964E+00 2.21049E+01 6.15254E-03
 -1      3851-1.44779E+00 4.35727E+00 3.01022E-02
 -1      3852-1.54269E+00 4.75300E+00 2.93950E-02
 -1      3853-1.37969E+00 4.28473E+00 1.76150E-02
 -1      3854-1.03539E+00 4.31612E+00 1.80030E-02
 -1      3855 5.67779E-01 4.23248E+00-3.00668E-02
 -1      3856 5.52636E-01 4.63425E+00-2.94198E-02
 -1      3857 4.96187E-01 4.72737E+00-1.68317E-02
 -1      3858 1.54948E-01 4.66389E+00-1.64085E-02
 -1      3859-1.32957E+00 4.07457E+00-1.78329E-02
 -1      3860-1.00016E+00 4.10228E+00-1.84859E-02
 -1      3861-8.69762E-01 4.12839E+00-7.46030E-03
 -1      3862 4.84022E-01 4.95516E+00 1.66130E-02
 -1      3863 1.39223E-01 4.88846E+00 1.63431E-02
 -1      3864 1.93609E-03 4.87859E+00 6.36068E-03
 -1      3865-1.36306E+00 3.97433E+00-3.11060E-02
 -1      3866-1.07730E+00 4.49033E+00-1.79988E-02
 -1      3867 5.35624E-01 5.04972E+00 2.88444E-02
 -1      3868 5.05037E-01 4.54245E+00 1.70175E-02
 -1      3869-2.63813E+00 9.57822E+00-1.30048E-02
 -1      3870-2.17679E+00 9.65844E+00-1.32363E-02
 -1      3871-1.99384E+00 9.69624E+00-5.29699E-03
 -1      3872-2.80721E+00 9.97824E+00-2.17869E-02
 -1      3873-2.67454E+00 9.44062E+00-2.25611E-02
 -1      3874-2.28923E+00 1.02009E+01-1.26529E-02
 -1      3875-2.77007E+00 1.01186E+01-1.25362E-02
 -1      3876-1.45511E+00 4.35517E+00-3.03618E-02
 -1      3877-1.42006E+00 4.45920E+00-1.74160E-02
 -1      3878-5.72553E-02 9.38344E+00-1.07487E-02
 -1      3879-5.01409E-01 9.28996E+00-1.05864E-02
 -1      3880 1.21735E-01 9.41126E+00-2.33531E-02
 -1      3881-4.51155E-02 1.00735E+01-1.30206E-02
 -1      3882-5.00685E-01 9.97475E+00-1.28378E-02
 -1      3883-6.84021E-01 9.94562E+00-5.04484E-03
 -1      3884-2.18386E+00 7.41453E+00 2.54378E-02
 -1      3885-2.26527E+00 8.03122E+00 1.42569E-02
 -1      3886-2.08915E-01 1.22863E+00 9.50972E-03
 -1      3887-2.53781E+00 1.38105E+01 3.80799E-03
 -1      3888-2.75989E+00 1.47323E+01 3.74026E-03
 -1      3889-2.30019E+00 7.90187E+00 2.47128E-02
 -1      3890-1.82411E+00 8.09634E+00 1.43526E-02
 -1      3891 3.04864E-01 7.84656E+00 2.51014E-02
 -1      3892 1.65021E-01 8.46489E+00 1.39314E-02
 -1      3893-3.24441E-02 1.05155E+01-2.20122E-02
 -1      3894 4.90641E-02 9.95838E+00-2.26971E-02
 -1      3895-1.25526E-01 1.06330E+01-1.25636E-02
 -1      3896-5.93950E-01 1.05303E+01-1.24454E-02
 -1      3897 5.54592E-01 4.63242E+00 2.94518E-02
 -1      3898 1.71683E-01 4.47850E+00 1.66308E-02
 -1      3899-4.41445E+00 2.01577E+01-2.17217E-04
 -1      3900-5.20078E+00 2.01557E+01 1.89392E-03
 -1      3901-4.04820E+00 2.04285E+01 1.69864E-03
 -1      3902-2.21458E+00 2.08836E+01 2.05149E-03
 -1      3903-3.72586E+00 2.03229E+01-8.91564E-05
 -1      3904-3.35950E+00 2.05962E+01 2.23493E-03
 -1      3905-1.68490E-01 9.22341E-01 9.80841E-03
 -1      3906-3.83493E+00 1.40157E+01-1.71971E-02
 -1      3907-3.67225E+00 1.33805E+01-1.78857E-02
 -1      3908-2.95941E+00 1.34733E+01-8.77596E-03
 -1      3909-3.48033E+00 1.33870E+01-8.64363E-03
 -1      3910-3.11165E+00 1.41124E+01-8.42507E-03
 -1      3911-1.32799E+00 1.70543E+01-7.87978E-03
 -1      3912-1.11320E+00 1.61783E+01-8.87364E-03
 -1      3913-2.23260E-01 1.43091E+00-8.44224E-03
 -1      3914-4.25562E-01 1.60677E+00-9.47949E-03
 -1      3915-4.57242E-01 1.23638E+01-1.02313E-02
 -1      3916-5.07521E-01 1.32483E+01-1.14652E-02
 -1      3917-1.18714E+00 9.29955E+00 1.97495E-04
 -1      3918-1.53209E+00 9.37245E+00-4.33684E-03
 -1      3919-1.88005E+00 1.69198E+01-7.90448E-03
 -1      3920-1.65663E+00 1.60471E+01-8.89842E-03
 -1      3921-1.28878E+00 9.27898E+00 5.43607E-04
 -1      3922-9.90158E-01 9.47292E+00-3.73212E-03
 -1      3923-9.53621E-01 1.22515E+01-1.01859E-02
 -1      3924-1.01542E+00 1.31307E+01-1.15042E-02
 -1      3925 2.45141E-01 8.35655E+00 2.44229E-02
 -1      3926-2.67575E-01 8.37965E+00 1.37397E-02
 -1      3927-1.82777E+00 9.18289E+00 3.65867E-04
 -1      3928-2.44024E+00 9.21722E+00-4.04102E-03
 -1      3929-6.31727E-01 1.42290E+00-7.14187E-03
 -1      3930-2.84223E+00 1.52467E+01-3.13823E-03
 -1      3931-3.39648E+00 1.56075E+01-3.76333E-03
 -1      3932-6.51360E-01 9.40393E+00 3.59159E-04
 -1      3933-9.56772E-02 9.65725E+00-4.02899E-03
 -1      3934 2.03244E-01 1.91027E-01 3.84762E-02
 -1      3935 2.20834E-01 3.08588E-01 1.82017E-02
 -1      3936-4.51197E+00 3.12804E+01 2.92479E-03
 -1      3937-4.53154E+00 3.04469E+01 1.71591E-03
 -1      3938 2.57322E-01 2.98820E-01 3.94962E-02
 -1      3939 1.31845E-01 2.85562E-01 1.76906E-02
 -1      3940 2.78050E-01 4.61399E-01-1.97071E-02
 -1      3941 3.41582E-01 6.76987E-01-2.08287E-02
 -1      3942-4.29642E+00 3.05214E+01 3.59151E-03
 -1      3943-5.14008E+00 3.02747E+01 1.87738E-03
 -1      3944-1.37575E+00 4.26926E+00-8.10950E-03
 -1      3945-1.19279E+00 3.81790E+00-5.59308E-03
 -1      3946-8.39933E-01 3.96160E+00 1.18671E-03
 -1      3947-1.33603E+00 4.09809E+00 8.18146E-03
 -1      3948-1.00604E+00 4.42279E+00-2.59622E-05
 -1      3949-2.88109E+00 2.47735E+01 8.37456E-03
 -1      3950-6.42818E+00 2.38739E+01 7.43299E-03
 -1      3951-1.46787E+00 4.66118E+00-7.92730E-03
 -1      3952-1.02077E+00 4.92560E+00-1.16776E-03
 -1      3953-1.45934E+00 4.98583E+00 5.14355E-03
 -1      3954-1.42676E+00 4.48339E+00 7.98182E-03
 -1      3955 4.94103E-01 4.75109E+00 7.70673E-03
 -1      3956 3.81874E-01 5.25519E+00 4.96866E-03
 -1      3957-1.79065E-02 5.07127E+00-1.00710E-03
 -1      3958 4.84077E-01 4.93939E+00-7.63262E-03
 -1      3959 1.09488E-01 4.57643E+00-1.42901E-05
 -1      3960-1.76493E-01 3.92826E+00-4.46110E-03
 -1      3961-4.55677E-01 4.00526E+00 1.69004E-03
 -1      3962-6.75950E-01 4.16209E+00 8.97827E-03
 -1      3963-1.53092E-01 4.41249E+00-7.03291E-03
 -1      3964-4.46060E-01 4.49141E+00 5.63267E-04
 -1      3965-7.41097E-01 4.55504E+00 8.72799E-03
 -1      3966-7.44627E-01 5.06971E+00 5.81662E-03
 -1      3967-1.99010E-01 4.81798E+00-6.90629E-03
 -1      3968-4.36211E-01 5.00416E+00-6.24004E-04
 -1      3969 5.12628E-01 4.34600E+00 7.87302E-03
 -1      3970 7.42316E-02 4.08100E+00 1.06341E-03
 -1      3971 4.50266E-01 4.03234E+00-5.26300E-03
 -1      3972 5.04912E-01 4.52751E+00-7.79754E-03
 -1      3973 1.66642E-01 4.35102E-01-1.89557E-02
 -1      3974 2.06051E-01 6.47855E-01-2.01277E-02
 -1      3975-3.23365E-01 5.12960E+00 4.20785E-03
 -1      3976-5.98726E-01 4.98027E+00-1.55380E-03
 -1      3977-7.73531E-01 4.73434E+00-8.68289E-03
 -1      3978-1.80301E-01 4.63061E+00 6.87217E-03
 -1      3979-4.45268E-01 4.48995E+00-5.59088E-04
 -1      3980-6.69671E-01 1.41691E+01-5.12059E-03
 -1      3981-3.68035E+00 2.75252E+01-1.52302E-03
 -1      3982-4.88894E+00 2.72082E+01-1.85363E-03
 -1      3983-5.45057E+00 2.76193E+01-3.58650E-04
 -1      3984-7.06950E-01 4.33231E+00-8.97626E-03
 -1      3985-5.57034E-01 3.87496E+00-6.43352E-03
 -1      3986-1.36802E-01 4.22949E+00 6.97963E-03
 -1      3987-3.06244E-01 4.02400E+00 6.10534E-04
 -1      3988-4.11042E+00 2.97933E+01 4.20732E-03
 -1      3989 3.03974E-01 4.23236E-01 3.92470E-02
 -1      3990-7.37962E+00 2.74117E+01-4.39568E-03
 -1      3991 4.44620E-01 1.34731E+00-8.74928E-03
 -1      3992-7.25555E-01 1.50128E+00-3.67472E-02
 -1      3993-6.62452E-01 1.53796E+00-1.79183E-02
 -1      3994-7.98767E-01 1.74928E+00-3.62303E-02
 -1      3995-4.48329E-01 1.53740E+00-1.87274E-02
 -1      3996-6.61652E+00 2.45746E+01-6.91706E-03
 -1      3997-3.90984E+00 1.50198E+01-2.86572E-03
 -1      3998-7.10801E+00 3.01104E+01 1.44292E-04
 -1      3999 6.76134E-02 1.28782E+00-7.34452E-03
 -1      4000-4.30054E+00 1.58573E+01-1.51660E-02
 -1      4001-3.98829E+00 1.53292E+01-7.44236E-03
 -1      4002-3.44000E+00 1.54450E+01-7.56767E-03
 -1      4003-3.70284E+00 1.61400E+01-8.65048E-03
 -1      4004-4.25874E+00 1.60211E+01-8.68561E-03
 -1      4005-4.66661E-01 6.81920E-01-4.00787E-02
 -1      4006-2.41477E-01 1.56638E+00-2.05104E-03
 -1      4007 4.19778E-03 8.59441E-03 8.16362E-04
 -1      4008-3.73226E+00 1.85438E+01-3.35452E-03
 -1      4009-4.09076E+00 1.82823E+01-3.52201E-03
 -1      4010-3.49526E+00 1.79032E+01-2.80282E-03
 -1      4011-2.75914E+00 1.86334E+01 3.70707E-03
 -1      4012-3.11810E+00 1.83701E+01 3.70900E-04
 -1      4013-3.35278E+00 1.90158E+01 7.92838E-05
 -1      4014-8.34939E+00 3.14236E+01 5.35226E-04
 -1      4015-8.07916E+00 3.07196E+01 8.92777E-04
 -1      4016-4.13470E+00 2.07718E+01 3.72327E-04
 -1      4017-3.44322E+00 2.09410E+01 5.02069E-04
 -1      4018-2.91777E+00 1.55661E+01-7.33267E-04
 -1      4019-1.04312E+00 9.75116E+00-8.80515E-04
 -1      4020-1.58894E+00 9.64766E+00-1.01006E-03
 -1      4021-4.15222E+00 1.52455E+01-1.58700E-02
 -1      4022-3.30234E+00 1.48361E+01-7.98254E-03
 -1      4023-7.79183E-01 1.82237E+00-2.08814E-02
 -1      4024-5.46709E-01 1.82365E+00-2.16354E-02
 -1      4025-4.61197E+00 1.76512E+01-2.92234E-03
 -1      4026-4.85992E+00 1.82866E+01-3.48864E-03
 -1      4027-4.80273E+00 1.81065E+01 3.40137E-03
 -1      4028-4.27974E+00 1.87446E+01-6.50714E-05
 -1      4029-4.03650E+00 1.81032E+01 2.49214E-04
 -1      4030-3.99220E+00 1.46265E+01-1.65405E-02
 -1      4031-3.83026E+00 1.47089E+01-7.74742E-03
 -1      4032-5.94454E+00 2.75720E+01 6.14385E-04
 -1      4033-3.52104E+00 1.27872E+01-1.85754E-02
 -1      4034-3.44718E-01 3.88395E-01 4.15203E-02
 -1      4035-5.03346E+00 1.89460E+01-3.30505E-03
 -1      4036-4.32297E+00 1.94669E+01-4.95679E-04
 -1      4037-5.02460E+00 1.94852E+01 2.01040E-03
 -1      4038-4.97554E+00 1.87642E+01 3.22045E-03
 -1      4039-7.40375E-01 4.54636E+00-2.58913E-03
 -1      4040-5.86104E-01 4.07878E+00-1.46476E-03
 -1      4041-7.11338E-01 4.36852E+00 2.58451E-03
 -1      4042-1.58160E-01 4.44332E+00 2.04389E-03
 -1      4043-2.96674E-01 4.93204E+00 9.82121E-04
 -1      4044-1.78478E-01 4.62523E+00-2.06903E-03
 -1      4045-7.13407E-01 4.87213E+00 1.34818E-03
 -1      4046-2.00337E-01 4.13002E+00-1.04314E-03
 -1      4047-2.31296E+00 1.82126E+01-5.57309E-04
 -1      4048-1.60620E+00 1.87329E+01-3.64945E-03
 -1      4049-1.62634E+00 1.81856E+01 2.45975E-03
 -1      4050-2.35116E+00 1.83854E+01 3.21756E-03
 -1      4051-1.64352E+00 1.89088E+01 3.57341E-03
 -1      4052-6.03672E-01 1.40587E+01 1.81689E-02
 -1      4053-8.31379E-01 1.53097E+01-1.70217E-02
 -1      4054-1.44747E+00 8.42344E+00 6.67464E-03
 -1      4055-1.24178E+00 8.73482E+00 1.10203E-03
 -1      4056-8.95192E-01 8.94093E+00-3.84531E-03
 -1      4057-7.03278E-01 8.41906E+00-6.05719E-03
 -1      4058-4.90858E-01 8.73410E+00-5.35488E-03
 -1      4059-5.13126E-01 8.87459E+00 8.36584E-04
 -1      4060 1.32104E-01 8.72945E+00 6.21415E-03
 -1      4061-2.19482E-02 9.11809E+00-4.16693E-03
 -1      4062 1.49163E-01 8.59168E+00-6.44087E-03
 -1      4063 4.88794E-01 1.36211E+00 3.59317E-02
 -1      4064-3.89595E+00 1.92087E+01-3.13324E-03
 -1      4065-2.91376E+00 1.93014E+01 3.54840E-03
 -1      4066-3.19777E+00 1.99178E+01 2.32801E-03
 -1      4067-3.63973E+00 1.96287E+01-3.92737E-04
 -1      4068-3.08652E+00 1.76571E+01-1.62981E-04
 -1      4069-2.73095E+00 1.79166E+01 2.59002E-03
 -1      4070-3.67509E+00 1.40966E+01-8.06452E-03
 -1      4071-2.71902E+00 1.84587E+01-3.79134E-03
 -1      4072-2.97846E+00 1.80531E+01-6.23882E-04
 -1      4073-3.39582E+00 1.77609E+01 2.22985E-03
 -1      4074-3.67794E+00 1.83622E+01 3.28415E-03
 -1      4075-3.93430E+00 1.79591E+01 2.99502E-03
 -1      4076-4.48026E+00 1.92273E+01 6.78474E-03
 -1      4077-5.06188E+00 1.90939E+01 6.87053E-03
 -1      4078-4.97285E+00 1.87598E+01 1.10252E-02
 -1      4079-1.57200E+00 1.85729E+01 7.96511E-03
 -1      4080-2.13737E+00 1.84322E+01 8.03837E-03
 -1      4081-1.64139E+00 1.89038E+01 1.21953E-02
 -1      4082-7.25580E+00 2.76175E+01 2.10071E-03
 -1      4083-7.57547E+00 2.85019E+01 1.94808E-03
 -1      4084-6.63484E+00 2.77767E+01 1.94535E-03
 -1      4085-6.95231E+00 2.86626E+01 1.77696E-03
 -1      4086-4.88787E+00 1.84330E+01 7.23946E-03
 -1      4087-4.31120E+00 1.85636E+01 7.17506E-03
 -1      4088-1.71446E+00 1.92427E+01 7.62341E-03
 -1      4089-2.28522E+00 1.90997E+01 7.69212E-03
 -1      4090-1.06999E+00 1.57376E+01 1.35449E-02
 -1      4091-3.26427E+00 2.56362E+01 6.28617E-03
 -1      4092-6.50294E+00 2.48092E+01 5.41983E-03
 -1      4093-6.69293E-01 1.35819E+01 1.52870E-02
 -1      4094-3.87664E+00 2.81101E+01 4.57291E-03
 -1      4095-7.57204E+00 2.81281E+01 3.72894E-03
 -1      4096-7.15921E+00 2.72589E+01 3.66227E-03
 -1      4097 4.52213E-01 1.53549E+00 2.89215E-02
 -1      4098 1.17906E-01 8.85086E+00-1.38337E-02
 -1      4099-3.16029E-01 8.75955E+00-1.36458E-02
 -1      4100 1.52042E-01 8.58422E+00-2.17296E-02
 -1      4101-1.20895E+00 3.72636E+00 6.86638E-03
 -1      4102-8.58648E-01 3.86389E+00 8.71502E-03
 -1      4103 1.81305E-01 8.32931E+00-1.42441E-02
 -1      4104-2.39937E-01 8.24185E+00-1.40274E-02
 -1      4105-6.50185E-01 1.44070E+00 3.05785E-02
 -1      4106 3.56132E-01 7.83758E-01 3.07938E-02
 -1      4107-8.58133E-01 2.24857E+00-7.60941E-03
 -1      4108-5.47743E-01 2.18572E+00-9.85375E-03
 -1      4109-3.33809E+00 1.72505E+01-2.97395E-03
 -1      4110-3.75429E+00 1.69712E+01-3.79946E-03
 -1      4111-5.85053E+00 2.23479E+01 1.89363E-03
 -1      4112-5.11302E+00 2.23262E+01 2.31966E-03
 -1      4113-4.67197E+00 2.26355E+01 1.66238E-03
 -1      4114-2.66531E+00 2.31442E+01 2.10477E-03
 -1      4115-3.30378E+00 2.27773E+01 2.72662E-03
 -1      4116-3.83698E+00 2.28440E+01 2.35273E-03
 -1      4117-1.53146E+00 1.80416E+01-3.12069E-03
 -1      4118-2.21545E+00 1.80672E+01-3.84124E-03
 -1      4119-4.44386E+00 1.70044E+01-3.06907E-03
 -1      4120-3.75115E+00 1.75045E+01-2.23387E-04
 -1      4121-2.63326E+00 1.77731E+01-3.23980E-03
 -1      4122 4.14529E-01 5.36532E+00-6.10150E-03
 -1      4123 1.22242E-02 5.17549E+00-7.35010E-03
 -1      4124-1.52227E+00 5.07985E+00-6.33185E-03
 -1      4125-1.07829E+00 5.01607E+00-8.12814E-03
 -1      4126-3.81634E+00 1.88801E+01-9.90099E-04
 -1      4127-3.57739E+00 1.82366E+01-7.24888E-04
 -1      4128 4.88950E-01 3.94445E+00 6.58851E-03
 -1      4129 1.18228E-01 3.98900E+00 7.77565E-03
 -1      4130-5.76189E-01 3.78437E+00 7.69991E-03
 -1      4131-2.93605E-01 5.23877E+00-5.44023E-03
 -1      4132-5.13040E+00 1.96302E+01-2.50912E-03
 -1      4133-4.42624E+00 1.96109E+01-3.15681E-03
 -1      4134-3.98413E+00 1.98988E+01-2.32360E-03
 -1      4135-1.95180E+00 1.11449E+01-4.69322E-03
 -1      4136-2.31924E+00 1.09175E+01-5.68985E-03
 -1      4137-1.26977E+00 1.12815E+01-4.33813E-03
 -1      4138-8.45750E-01 1.12110E+01-5.53429E-03
 -1      4139-2.99061E-01 3.56348E-01-3.42818E-02
 -1      4140-2.91834E+00 1.09670E+01-4.51191E-03
 -1      4141-3.15794E-01 1.14888E+01-4.50915E-03
 -1      4142 3.46811E-01 5.69363E-01-3.85833E-02
 -1      4143 2.58877E-01 3.84126E-01-3.18702E-02
 -1      4144-3.53464E-01 2.27478E+00-8.73491E-03
 -1      4145-1.87730E+00 6.61423E+00 2.19072E-02
 -1      4146-2.82931E+00 2.38428E+01 7.59569E-03
 -1      4147-6.03299E+00 2.30368E+01 6.78168E-03
 -1      4148-5.30533E+00 2.02981E+01-8.93996E-03
 -1      4149-4.97658E+00 1.84353E+01-1.25775E-02
 -1      4150-4.60929E+00 1.76466E+01-1.10692E-02
 -1      4151-4.69600E+00 1.79756E+01-6.75720E-03
 -1      4152-4.12338E+00 1.81043E+01-6.69813E-03
 -1      4153-2.18589E+00 2.10600E+01-9.63297E-03
 -1      4154-1.08139E+00 1.65902E+01-1.57074E-02
 -1      4155-1.39313E+00 1.73778E+01-1.23678E-02
 -1      4156 5.05466E-01 2.69131E+00-2.69606E-02
 -1      4157-3.05361E+00 1.15239E+01-1.65343E-02
 -1      4158-1.12280E+00 3.35948E+00 2.66902E-02
 -1      4159 3.84827E-01 5.79575E+00-2.28016E-02
 -1      4160-1.49900E+00 8.95987E+00 5.33812E-03
 -1      4161-1.84520E+00 8.75642E+00 6.47013E-03
 -1      4162-3.95435E-01 1.28406E+01-1.94223E-02
 -1      4163-4.06764E-01 1.20642E+01-1.66679E-02
 -1      4164 2.53578E-01 8.35478E+00-2.47402E-02
 -1      4165-8.03725E-01 5.16224E+00-7.05702E-03
 -1      4166 2.80209E-01 6.96908E+00 2.14654E-02
 -1      4167-2.39735E+00 8.81195E+00 5.13012E-03
 -1      4168 1.06541E-02 9.25796E+00 4.95122E-03
 -1      4169-4.82286E-01 9.00950E+00 6.13578E-03
 -1      4170-4.40743E-01 7.31442E-01 3.28095E-02
 -1      4171-1.34116E-01 3.83614E+00 5.64671E-03
 -1      4172-8.76931E-01 9.08365E+00 4.63530E-03
 -1      4173-1.61610E+00 5.49099E+00-2.34229E-02
 -1      4174-9.27656E-01 2.53437E+00-2.82472E-02
 -1      4175-6.04630E-02 9.79315E+00 1.86885E-02
 -1      4176 5.01717E-01 3.55909E+00 2.56781E-02
 -1      4177-2.51945E+00 9.32767E+00 1.87539E-02
 -1      4178-2.74715E+00 2.34935E+01 4.88107E-03
 -1      4179-3.34580E+00 2.33386E+01 5.01503E-03
 -1      4180-5.33881E+00 2.28391E+01 4.27021E-03
 -1      4181-4.52666E+00 1.73253E+01-7.08877E-03
 -1      4182-5.94183E+00 2.26922E+01 4.38211E-03
 -1      4183-3.95943E+00 1.74510E+01-7.04934E-03
 -1      4184-4.63070E+00 2.01012E+01-5.66505E-03
 -1      4185-5.21795E+00 1.99640E+01-5.75427E-03
 -1      4186-1.46217E+00 1.77098E+01-7.56808E-03
 -1      4187-2.02024E+00 1.75726E+01-7.61137E-03
 -1      4188-2.98606E+00 1.12453E+01-1.05147E-02
 -1      4189-2.48811E+00 1.13359E+01-1.06211E-02
 -1      4190-1.16599E+00 3.54283E+00 1.65222E-02
 -1      4191-8.49058E-01 3.56720E+00 1.69833E-02
 -1      4192 3.34724E-02 5.51102E+00-1.40074E-02
 -1      4193 3.99849E-01 5.58035E+00-1.43533E-02
 -1      4194-3.61109E-01 1.17763E+01-1.05464E-02
 -1      4195-8.93066E-01 2.39121E+00-1.78665E-02
 -1      4196-1.56932E+00 5.28518E+00-1.48359E-02
 -1      4197-8.50876E-01 1.16669E+01-1.04559E-02
 -1      4198-4.75351E-01 9.43110E+00 1.16818E-02
 -1      4199-4.97658E+00 1.84353E+01 1.25103E-02
 -1      4200-1.62374E+00 1.92337E+01 1.32364E-02
 -1      4201-4.50947E+00 1.75097E+01 2.35016E-03
 -1      4202-2.45833E+00 9.06883E+00 1.20037E-02
 -1      4203 4.95532E-01 3.75171E+00 1.58376E-02
 -1      4204-1.19980E+00 5.32509E+00-1.53202E-02
 -1      4205 1.88662E-01 3.69702E+00 1.54208E-02
 -1      4206-6.31375E-01 2.40090E+00-1.86386E-02
 -1      4207-2.00057E+00 9.14177E+00 1.21475E-02
 -1      4208-2.44370E-02 9.52353E+00 1.18587E-02
 -1      4209-3.43557E-01 3.72834E+00-1.81337E-05
 -1      4210-1.53942E-01 4.04126E+00 1.49683E-03
 -1      4211-1.86239E-01 2.38416E+00-2.76967E-06
 -1      4212-4.30148E+00 2.29239E+01-3.61253E-05
 -1      4213-4.58579E+00 2.22924E+01 4.11493E-04
 -1      4214-3.75332E+00 2.24996E+01 5.88067E-04
 -1      4215-2.98901E+00 1.75160E+01-1.07319E-05
 -1      4216-2.80885E+00 1.82508E+01 5.90327E-04
 -1      4217-3.47713E+00 1.80934E+01 4.97119E-04
 -1      4218-2.71061E+00 1.81070E+01-8.59367E-04
 -1      4219-3.26320E+00 1.69316E+01-8.01856E-04
 -1      4220-3.62320E+00 2.01770E+01-3.34159E-05
 -1      4221-3.90320E+00 1.95666E+01-6.45404E-04
 -1      4222-3.34763E-01 2.14181E+00-2.29899E-03
 -1      4223-6.08543E-01 3.98276E+00 2.01553E-03
 -1      4224-1.64378E+00 1.13688E+01-1.08263E-05
 -1      4225-1.89552E+00 1.08704E+01-1.24912E-03
 -1      4226-1.21944E+00 1.10046E+01-1.13137E-03
 -1      4227-2.54783E+00 2.33630E+01 9.60105E-03
 -1      4228-4.63366E+00 1.71326E+01-1.38641E-02
 -1      4229-6.05526E+00 2.24847E+01 8.70700E-03
 -1      4230-5.32846E+00 1.97631E+01-1.12953E-02
 -1      4231-1.34453E+00 1.78993E+01-1.44851E-02
 -1      4232-3.52104E+00 1.27872E+01 1.85473E-02
 -1      4233-1.26750E+00 3.61029E+00 3.15597E-02
 -1      4234-3.08096E+00 1.10794E+01-2.04434E-02
 -1      4235 5.06796E-01 5.48259E+00-2.81476E-02
 -1      4236-5.67283E-01 5.32279E+00-1.72194E-05
 -1      4237-2.69913E-01 5.03784E+00-1.42027E-03
 -1      4238-1.21449E+00 9.16308E+00-2.00930E-05
 -1      4239-8.57025E-01 8.68523E+00-8.76866E-04
 -1      4240-8.29048E-01 8.82115E+00 1.22393E-03
 -1      4241-7.68953E-01 4.96575E+00-1.86137E-03
 -1      4242-2.06715E-01 1.16583E+01-2.06425E-02
 -1      4243-1.64626E+00 5.16107E+00-2.88657E-02
 -1      4244-9.46923E-01 2.30303E+00-3.47125E-02
 -1      4245-1.45425E+00 8.70558E+00 1.42015E-03
 -1      4246-8.55131E-01 7.14040E+00-2.98845E-05
 -1      4247 1.17594E-01 9.41157E+00 2.32360E-02
 -1      4248-2.55012E+00 8.91434E+00 2.33139E-02
 -1      4249 5.79950E-01 3.84643E+00 3.07498E-02
 -1      4250-1.86058E+00 1.99182E+01 7.28560E-03
 -1      4251-1.78575E+00 1.95767E+01 1.16679E-02
 -1      4252-2.43653E+00 1.97730E+01 7.35468E-03
 -1      4253-4.14468E+00 1.79060E+01 7.55761E-03
 -1      4254-4.79993E+00 1.81018E+01 1.15877E-02
 -1      4255-4.71619E+00 1.77783E+01 7.60791E-03
 -1      4256 2.39532E-01 7.82037E+00-1.45735E-02
 -1      4257 2.12920E-01 8.06832E+00-2.22715E-02
 -1      4258-1.71994E-01 7.73609E+00-1.43675E-02
 -1      4259-7.85460E+00 2.95444E+01 6.48419E-04
 -1      4260-7.06393E+00 2.97816E+01 6.04858E-04
 -1      4261-3.96980E+00 1.51240E+01 1.33304E-02
 -1      4262-4.82339E+00 3.32832E+01 1.58055E-03
 -1      4263-4.86258E+00 3.26309E+01 2.01784E-03
 -1      4264-5.07541E+00 3.28786E+01 1.01528E-03
 -1      4265-5.51423E+00 3.27664E+01 1.05850E-03
 -1      4266-5.88467E+00 3.34423E+01 6.18342E-04
 -1      4267-5.64753E+00 3.32237E+01 5.98278E-04
 -1      4268-1.16135E-01 4.95438E-02-4.02579E-02
 -1      4269-7.78028E-02 2.59396E-02-3.53018E-02
 -1      4270-6.16362E-02 2.74871E-02-2.22786E-02
 -1      4271-8.11382E-02 4.05247E-02-1.99037E-02
 -1      4272-1.21301E-02 7.99990E-01-5.04579E-05
 -1      4273-4.79157E+00 2.54168E+01-9.01423E-05
 -1      4274-5.34112E+00 2.75564E+01-1.04730E-04
 -1      4275-5.05275E-02 1.43653E+00-5.59534E-05
 -1      4276-8.71183E+00 3.16225E+01-1.04036E-03
 -1      4277-8.86878E+00 3.22145E+01-5.20296E-04
 -1      4278-8.47325E+00 3.20102E+01-3.86701E-04
 -1      4279-8.03836E+00 3.21243E+01-1.65502E-04
 -1      4280-7.76610E+00 2.92142E+01 1.61125E-03
 -1      4281-7.87632E+00 2.99584E+01 1.29905E-03
 -1      4282-1.95897E+00 1.34497E+01-1.19048E-04
 -1      4283-4.95662E+00 3.37410E+01 8.66615E-04
 -1      4284-4.93781E+00 3.36698E+01 6.52767E-04
 -1      4285-2.35896E+00 1.52996E+01-1.08010E-04
 -1      4286-1.87179E-02 2.97593E-01 2.38365E-05
 -1      4287-4.82438E+00 3.32869E+01-1.61408E-03
 -1      4288-4.86355E+00 3.26346E+01-2.07687E-03
 -1      4289-5.05577E+00 3.29093E+01-1.07688E-03
 -1      4290-5.49370E+00 3.27934E+01-1.15982E-03
 -1      4291 7.29235E-02 3.01947E-02-3.17751E-02
 -1      4292 1.08502E-01 5.77930E-02-3.65440E-02
 -1      4293 7.58307E-02 4.57719E-02-1.76775E-02
 -1      4294 5.56400E-02 3.18131E-02-1.87507E-02
 -1      4295-5.39637E+00 3.36282E+01 7.92254E-04
 -1      4296-7.82438E-02 2.58173E-02 3.55711E-02
 -1      4297-1.16440E-01 4.96120E-02 4.04480E-02
 -1      4298-8.12485E-02 3.98516E-02 2.04940E-02
 -1      4299-6.20250E-02 2.68281E-02 2.27260E-02
 -1      4300-8.51275E+00 3.16787E+01 8.31954E-04
 -1      4301-8.86973E+00 3.22182E+01 3.84630E-04
 -1      4302-8.07223E+00 3.21330E+01 9.03916E-05
 -1      4303-8.50814E+00 3.20225E+01 2.70737E-04
 -1      4304-7.71625E+00 3.15932E+01 3.05693E-04
 -1      4305 3.71553E-02 2.00042E-02-8.89642E-03
 -1      4306 3.16788E-02 1.40205E-02-8.76271E-03
 -1      4307-8.03274E+00 3.28542E+01 4.35931E-04
 -1      4308-8.14517E+00 3.25923E+01 4.10836E-05
 -1      4309 7.25700E-02 3.00569E-02 3.16210E-02
 -1      4310 1.08194E-01 5.76028E-02 3.63978E-02
 -1      4311 7.61188E-02 4.61911E-02 1.74133E-02
 -1      4312 5.59794E-02 3.23577E-02 1.87356E-02
 -1      4313-4.36732E+00 1.87453E+01-7.21561E-03
 -1      4314-4.94545E+00 1.86139E+01-7.29405E-03
 -1      4315 3.18285E-02 1.47863E-02-1.26290E-02
 -1      4316 3.54338E-02 1.91526E-02 8.43883E-03
 -1      4317 3.18806E-02 1.42312E-02 9.01177E-03
 -1      4318-8.97603E+00 3.26826E+01-4.50368E-05
 -1      4319-8.95742E+00 3.26113E+01-1.16633E-04
 -1      4320-8.54019E+00 3.27972E+01 2.69050E-04
 -1      4321-1.99098E-02-6.26361E-04-1.23370E-02
 -1      4322 1.82076E-02 3.48084E-04-1.03615E-02
 -1      4323 2.48830E-02 4.82129E-03-1.37450E-02
 -1      4324-4.99375E+00 3.37354E+01-6.90950E-04
 -1      4325-2.66378E-02 3.07757E-03-1.58533E-02
 -1      4326-3.40111E-02 1.18008E-02-1.04410E-02
 -1      4327 3.15414E-02 1.46738E-02 1.24721E-02
 -1      4328 1.82278E-02 3.36382E-04 1.03723E-02
 -1      4329 2.49035E-02 4.82161E-03 1.37402E-02
 -1      4330-2.42841E+00 2.24499E+01 9.37286E-03
 -1      4331-3.10479E+00 2.26474E+01 5.92404E-03
 -1      4332-2.51001E+00 2.28008E+01 5.80707E-03
 -1      4333-5.22671E+00 2.21193E+01 5.17200E-03
 -1      4334-5.82639E+00 2.19748E+01 5.28665E-03
 -1      4335-5.73353E+00 2.16298E+01 8.56422E-03
 -1      4336-2.09909E+00 1.82576E+01-8.16244E-03
 -1      4337-1.53521E+00 1.83977E+01-8.10433E-03
 -1      4338-1.60405E+00 1.87278E+01-1.23786E-02
 -1      4339-4.33890E+00 1.63347E+01-1.32540E-02
 -1      4340-4.42366E+00 1.66570E+01-8.30913E-03
 -1      4341-3.86184E+00 1.67792E+01-8.27181E-03
 -1      4342-9.59477E-01 3.93424E+00 1.84489E-02
 -1      4343-1.33230E+00 4.08619E+00 2.77275E-02
 -1      4344-1.29055E+00 3.90672E+00 1.80143E-02
 -1      4345-2.83459E+00 1.03863E+01-1.92487E-02
 -1      4346-2.90472E+00 1.06668E+01-1.21513E-02
 -1      4347-2.41504E+00 1.07530E+01-1.22620E-02
 -1      4348 4.87076E-01 4.92769E+00-2.60785E-02
 -1      4349 4.72820E-01 5.14684E+00-1.64696E-02
 -1      4350 1.18990E-01 5.08005E+00-1.60963E-02
 -1      4351-6.91717E-01 1.10946E+01-1.20682E-02
 -1      4352-1.65620E-01 1.09107E+01-1.93296E-02
 -1      4353-2.10783E-01 1.12014E+01-1.21770E-02
 -1      4354 2.00718E-01 4.08617E+00 1.69782E-02
 -1      4355 5.15570E-01 4.33384E+00 2.68856E-02
 -1      4356 5.21043E-01 4.14484E+00 1.73529E-02
 -1      4357-4.95768E+00 3.37447E+01-9.20553E-04
 -1      4358-5.62699E+00 3.32507E+01-6.45675E-04
 -1      4359-1.15631E+00 4.89380E+00-1.75003E-02
 -1      4360-1.46410E+00 4.64973E+00-2.68138E-02
 -1      4361-1.51382E+00 4.85858E+00-1.70102E-02
 -1      4362-3.40605E-01 8.89933E+00 1.34367E-02
 -1      4363 1.00268E-01 8.98909E+00 1.36346E-02
 -1      4364 1.34952E-01 8.72206E+00 2.15310E-02
 -1      4365-3.85976E+00 2.82431E+01-4.80934E-03
 -1      4366-8.49682E-01 2.09438E+00-2.04058E-02
 -1      4367-6.02751E-01 2.09984E+00-2.11878E-02
 -1      4368-8.12079E-01 1.94726E+00-3.21116E-02
 -1      4369-1.04914E+00 1.58539E+01-1.42899E-02
 -1      4370-3.18863E+00 2.55288E+01-6.78655E-03
 -1      4371-5.58281E-01 1.35476E+01-1.74884E-02
 -1      4372 4.70339E-01 1.57810E+00-3.05161E-02
 -1      4373-3.91982E-02 1.84814E-02 1.03846E-02
 -1      4374-3.36108E-02 1.34754E-02 1.45430E-02
 -1      4375-3.42300E-02 1.14939E-02 1.06402E-02
 -1      4376-8.03644E+00 3.28532E+01-5.26623E-04
 -1      4377-8.54390E+00 3.27963E+01-3.90689E-04
 -1      4378-8.18277E+00 3.25999E+01-1.40595E-04
 -1      4379-1.97946E-02-1.06444E-03 1.25266E-02
 -1      4380-2.32327E+00 8.27753E+00 2.16935E-02
 -1      4381-1.93798E+00 8.60342E+00 1.39692E-02
 -1      4382-2.38628E+00 8.53508E+00 1.38174E-02
 -1      4383-3.26930E-02 1.47583E-02-9.63809E-03
 -1      4384-3.27860E-02 1.23587E-02-1.42795E-02
 -1      4385 3.60797E-01 7.54220E-01-3.26535E-02
 -1      4386-5.82934E+00 3.35138E+01-6.59046E-04
 -1      4387-2.66817E-02 3.32464E-03 1.57519E-02
 -1      4388-5.12013E+00 1.92765E+01-6.91463E-03
 -1      4389-4.53716E+00 1.94107E+01-6.82510E-03
 -1      4390-5.03078E+00 1.89416E+01-1.10421E-02
 -1      4391-5.39639E+00 3.36282E+01-8.26142E-04
 -1      4392-6.34392E+00 2.98760E+01-5.46983E-05
 -1      4393-8.98101E+00 3.26855E+01-2.65696E-05
 -1      4394-8.98068E+00 3.26854E+01-6.54259E-05
 -1      4395-6.55589E+00 2.99221E+01 1.62443E-04
 -1      4396-8.35389E+00 3.10802E+01 1.24918E-03
 -1      4397-7.44677E+00 3.08884E+01 6.28541E-04
 -1      4398-7.14787E+00 2.93855E+01 1.42691E-03
 -1      4399-7.25721E+00 3.01306E+01 1.00666E-03
 -1      4400-7.67105E+00 2.88608E+01 2.79081E-03
 -1      4401-7.97411E+00 3.03269E+01 1.68249E-03
 -1      4402-7.96007E+00 2.95622E+01 2.53416E-03
 -1      4403-7.28654E+00 2.78862E+01-8.19620E-04
 -3
    1PSTEP                         2           1           1          
  100CL  101 1.000000000        4403                     0    1           1
 -4  STRESS      6    1
 -5  SXX         1    4    1    1
 -5  SYY         1    4    2    2
 -5  SZZ         1    4    3    3
 -5  SXY         1    4    1    2
 -5  SYZ         1    4    2    3
 -5  SZX         1    4    3    1
 -1         1 1.43311E+04 4.07616E+03 4.36040E+03 1.48549E+03-5.53569E+02-3.06297E+03
 -1         2 1.43321E+04 4.07640E+03 4.36520E+03 1.48622E+03 5.54010E+02 3.06632E+03
 -1         3-1.25687E+04-4.27442E+03-4.36111E+03 9.85835E+02-4.58261E+02 2.35293E+03
 -1         4-1.25734E+04-4.28107E+03-4.36342E+03 9.52548E+02 4.41605E+02-2.35263E+03
 -1         5 4.35286E+01 2.66709E+01 4.30019E+00 1.39497E+02 1.41446E+01 3.29711E+00
 -1         6 4.82178E+01 3.57889E+01 6.94403E+00 1.41661E+02-1.51174E+01-6.24051E-01
 -1         7-2.73400E+00 1.34036E+02-4.47144E+00 1.02094E+01 5.27593E+00-1.38302E+01
 -1         8-1.04739E+01 1.30820E+02-5.33306E+00 1.15590E+01-7.64843E+00 1.32418E+01
 -1         9 1.31556E+04 5.20063E+03 5.11467E+03 3.07880E+03-3.70729E+01 1.08711E+03
 -1        10 1.33978E+04 5.28924E+03 5.18519E+03 3.06394E+03 7.93739E+01 8.21529E+01
 -1        11 1.31134E+04 5.17949E+03 5.10588E+03 3.05861E+03 4.04736E+01-1.10885E+03
 -1        12 1.36636E+04 5.49288E+03 5.45240E+03 2.87702E+03 1.00113E+02 1.96018E+03
 -1        13 1.31731E+04 5.32409E+03 5.21014E+03 2.94782E+03 2.99056E+01 5.73825E+02
 -1        14 1.35112E+04 5.46372E+03 5.33471E+03 3.11476E+03-3.29582E+01-5.70374E+02
 -1        15 1.36573E+04 5.48930E+03 5.45078E+03 2.86458E+03-1.00169E+02-1.97212E+03
 -1        16 6.48430E+03 2.63976E+03 2.56817E+03-1.11831E+03 1.78208E+02-1.78525E+03
 -1        17-5.51135E+02-1.65556E+02-3.40830E+02-1.47617E+03 8.14211E+01 2.54119E+02
 -1        18-7.22948E+03-3.14268E+03-3.27760E+03-9.58913E+02 1.89804E+00 1.92279E+03
 -1        19 1.13950E+04 4.52731E+03 4.68201E+03-2.33611E+02 2.35229E+00-3.02968E+03
 -1        20 2.91382E+03 1.23704E+03 1.22554E+03-1.28799E+03 1.82290E+01-7.77080E+02
 -1        21-4.01865E+03-1.75992E+03-1.76117E+03-1.24198E+03-3.05179E+01 1.09643E+03
 -1        22-1.07451E+04-5.01313E+03-4.84856E+03-2.91890E+02-1.36630E+01 2.49621E+03
 -1        23-1.15534E+04-5.22417E+03-5.26210E+03 2.20654E+03-9.55118E+00-1.07150E+03
 -1        24-1.17887E+04-5.30779E+03-5.39922E+03 2.28682E+03 7.03280E+01-7.13311E+01
 -1        25-1.15158E+04-5.16505E+03-5.24958E+03 2.26643E+03 1.71238E+02 9.63089E+02
 -1        26-1.17448E+04-5.43286E+03-5.42115E+03 1.90267E+03-9.19740E+01-1.63774E+03
 -1        27-1.19296E+04-5.48398E+03-5.58726E+03 2.26198E+03-3.21227E+01-5.03954E+02
 -1        28-1.18590E+04-5.44239E+03-5.54822E+03 2.27887E+03 3.51942E+01 4.97993E+02
 -1        29-1.19421E+04-5.52025E+03-5.52156E+03 2.04903E+03 1.01017E+02 1.64023E+03
 -1        30 6.49661E+03 2.64368E+03 2.57379E+03-1.12014E+03-1.77559E+02 1.78824E+03
 -1        31-5.49322E+02-1.65572E+02-3.43383E+02-1.48069E+03-7.93288E+01-2.49839E+02
 -1        32-7.16742E+03-3.11555E+03-3.24372E+03-9.76132E+02-1.81027E+01-1.94054E+03
 -1        33 1.13972E+04 4.52812E+03 4.68287E+03-2.36419E+02-2.46916E+00 3.03032E+03
 -1        34 2.92321E+03 1.24114E+03 1.22942E+03-1.29259E+03-1.84062E+01 7.79175E+02
 -1        35-3.95597E+03-1.73137E+03-1.73302E+03-1.24898E+03 3.03311E+01-1.08690E+03
 -1        36-1.07010E+04-4.99080E+03-4.82462E+03-3.04085E+02 1.47569E+01-2.50808E+03
 -1        37 4.45535E+01 4.09729E+01-1.67334E+01 1.59054E+02-6.66203E+00-6.09797E+00
 -1        38 4.39372E+01 3.61197E+01-3.72672E+01 1.57093E+02 1.03631E+00 2.52508E-03
 -1        39 4.91828E+01 3.40124E+01-1.67132E+01 1.54645E+02 7.91832E+00 5.22626E+00
 -1        40 4.24828E+01 4.04998E+01 1.45973E+00 1.48975E+02-1.29182E+01-4.67345E+00
 -1        41 4.02193E+01 3.37313E+01-3.26757E+01 1.58102E+02-4.09706E+00 1.15604E-02
 -1        42 4.51784E+01 3.46779E+01-3.29604E+01 1.53547E+02 4.86117E+00 3.19370E+00
 -1        43 4.24868E+01 3.94263E+01-3.01115E+00 1.49052E+02 1.36224E+01 2.22015E+00
 -1        44-1.49559E+02 5.02295E+01-6.32790E-01 2.26366E+02-8.31739E+00 3.84472E+00
 -1        45-1.03521E+02 2.08406E+02 2.45525E-01 1.49552E+02-1.99047E+01 1.13625E+01
 -1        46-4.60155E+01 3.46679E+02 3.98371E+00 6.68001E+01-1.21568E+01 6.60941E+00
 -1        47-8.30095E+01 9.49816E+00-5.38676E+00 1.97754E+02-2.05465E+00 7.11868E+00
 -1        48-1.28467E+02 1.24517E+02 1.46538E-01 1.90160E+02-1.52024E+01 1.33953E+01
 -1        49-7.63324E+01 2.85769E+02 3.67098E+00 1.04636E+02-1.82586E+01 1.09740E+01
 -1        50-1.46150E+01 2.82150E+02 6.43335E+00 3.33953E+01-1.01196E+01-8.44603E+00
 -1        51-2.76990E+01 1.49443E+02 1.92515E+01 7.19523E+00 1.94242E+00 9.16632E+00
 -1        52-2.36964E+01 1.44579E+02 3.87117E+01 5.67172E+00-1.61792E-01-5.63526E-01
 -1        53-1.98840E+01 1.38960E+02 1.85327E+01 4.09858E+00-5.55316E-01-9.34719E+00
 -1        54-1.83589E+01 1.41266E+02 8.75072E-01 1.28723E+01-2.41748E+00 1.39360E+01
 -1        55-2.04368E+01 1.54180E+02 3.51263E+01 5.80760E+00-2.86278E+00 3.47031E+00
 -1        56-1.95392E+01 1.37181E+02 3.37805E+01 6.91297E+00 7.36809E-02-5.73394E+00
 -1        57-1.76068E+01 1.40830E+02 4.65149E+00 1.21934E+01 4.83071E+00-1.24356E+01
 -1        58-1.48581E+02 5.15217E+01-1.15602E+00 2.25420E+02 1.02774E+01-5.65390E+00
 -1        59-1.05072E+02 2.08757E+02-1.66783E-01 1.49531E+02 1.90911E+01-1.24436E+01
 -1        60-4.60432E+01 3.46640E+02 3.68383E+00 6.70155E+01 1.11546E+01-6.45478E+00
 -1        61-8.35439E+01 1.77278E+01-5.83026E+00 1.99500E+02-1.83118E+00-1.11618E+01
 -1        62-1.29224E+02 1.22910E+02-1.60311E+00 1.92478E+02 1.77115E+01-1.00425E+01
 -1        63-7.60310E+01 2.86581E+02 4.60873E+00 1.05134E+02 1.71774E+01-1.11221E+01
 -1        64-1.39143E+01 2.84502E+02 7.80332E+00 3.38768E+01 9.00796E+00 6.92872E+00
 -1        65 1.04819E+04-2.91307E+02-2.77815E+02-5.81514E+01-5.16141E+01-1.43146E+01
 -1        66 1.09807E+04 1.76134E+01-2.80038E+01 6.41778E+02-6.57916E-01-8.54509E+00
 -1        67 1.07685E+04 8.43034E+01-3.47292E+00 9.85836E+02-3.02282E+00-2.44434E+01
 -1        68 1.03517E+04 1.41827E+02 1.30216E+01 1.26052E+03-7.93115E+00-2.28661E+01
 -1        69 9.92887E+03 2.12751E+02 7.19358E-01 1.46993E+03-5.33278E+00-2.27593E+01
 -1        70 9.43989E+03 2.86283E+02 6.89123E+00 1.66247E+03-6.33333E+00-2.33918E+01
 -1        71 8.99687E+03 3.55561E+02 8.08975E-01 1.80433E+03-3.98004E+00-2.46186E+01
 -1        72 8.53926E+03 4.31299E+02-1.20171E+00 1.92779E+03-5.69354E+00-2.24007E+01
 -1        73 8.05712E+03 5.03382E+02 9.24125E+00 2.02885E+03-1.01773E+01-1.90430E+01
 -1        74 7.60734E+03 5.70756E+02 6.84526E+00 2.09405E+03-6.42962E+00-1.81902E+01
 -1        75 7.19532E+03 6.29007E+02-3.61623E-01 2.13366E+03-6.81604E+00-1.98842E+01
 -1        76 6.76626E+03 6.83029E+02-1.79658E+00 2.15570E+03-6.88089E+00-2.09284E+01
 -1        77 6.32995E+03 7.35331E+02 7.39721E+00 2.16587E+03-1.03970E+01-1.77021E+01
 -1        78 5.93879E+03 7.71287E+02 2.49696E+00 2.14031E+03-6.65877E+00-1.78833E+01
 -1        79 5.54456E+03 8.04245E+02 1.65155E+00 2.11720E+03-7.51316E+00-1.71458E+01
 -1        80 5.15437E+03 8.30113E+02 2.56110E+00 2.07127E+03-6.79070E+00-1.88132E+01
 -1        81 4.80378E+03 8.34910E+02 7.28459E-01 2.00619E+03-6.51906E+00-1.91579E+01
 -1        82 4.45359E+03 8.41881E+02-1.08147E+00 1.93703E+03-7.47401E+00-1.73671E+01
 -1        83 4.09239E+03 8.43731E+02 5.39419E+00 1.86139E+03-9.96780E+00-1.48110E+01
 -1        84 3.77743E+03 8.24963E+02 1.87778E+00 1.76389E+03-8.64721E+00-1.46769E+01
 -1        85 3.45017E+03 8.12425E+02-8.93142E-01 1.67540E+03-6.18078E+00-1.62316E+01
 -1        86 3.15027E+03 7.75020E+02 3.33289E+00 1.56100E+03-8.47982E+00-1.60714E+01
 -1        87 2.84333E+03 7.44722E+02 2.88397E+00 1.45508E+03-7.35600E+00-1.42508E+01
 -1        88 2.56343E+03 7.03532E+02 9.77551E-01 1.34269E+03-7.26529E+00-1.38771E+01
 -1        89 2.28726E+03 6.48826E+02 4.91144E-01 1.21789E+03-6.30878E+00-1.50084E+01
 -1        90 2.01298E+03 6.03490E+02 5.59468E-01 1.10124E+03-6.81915E+00-1.27893E+01
 -1        91 1.74782E+03 5.46184E+02-1.22071E-01 9.75978E+02-7.01962E+00-1.34724E+01
 -1        92 1.48896E+03 4.81653E+02 3.16495E+00 8.46447E+02-7.49786E+00-1.26515E+01
 -1        93 1.24756E+03 4.07804E+02 6.18469E-01 7.12230E+02-5.70073E+00-1.32836E+01
 -1        94 9.93940E+02 3.49285E+02-8.89055E-01 5.87895E+02-5.79880E+00-1.31127E+01
 -1        95 7.62877E+02 2.64873E+02 6.01646E-01 4.50378E+02-6.15873E+00-1.41943E+01
 -1        96 5.31912E+02 1.91883E+02-1.06713E+00 3.18878E+02-5.39576E+00-1.08172E+01
 -1        97 3.40067E+02 1.14726E+02 8.85855E-02 1.84180E+02-6.48830E-01-5.37312E+00
 -1        98 1.19252E+04 2.96425E+02 3.62454E+02 2.62997E+02 8.19786E+01 1.05134E+03
 -1        99 1.09529E+04 2.49935E+00 4.20757E+00 4.25107E+02 5.64878E+01 8.16299E+01
 -1       100 1.09072E+04 4.55937E+01-2.37430E+00 8.22254E+02-8.02851E+00-2.03345E+01
 -1       101 1.05800E+04 1.08119E+02 2.63503E+00 1.13168E+03-6.05461E+00-2.91003E+01
 -1       102 1.01718E+04 1.73939E+02 4.47988E+00 1.37004E+03-1.11239E+01-2.42399E+01
 -1       103 9.68781E+03 2.44389E+02-2.64584E+00 1.57315E+03-5.33806E+00-2.76709E+01
 -1       104 9.24070E+03 3.19039E+02 3.11192E+00 1.74072E+03-7.71982E+00-2.32595E+01
 -1       105 8.77008E+03 3.91045E+02-1.83248E+00 1.87193E+03-6.02811E+00-2.66648E+01
 -1       106 8.29864E+03 4.60940E+02-1.78856E+00 1.98366E+03-8.99081E+00-2.41969E+01
 -1       107 7.85579E+03 5.38524E+02 5.43848E+00 2.06882E+03-1.03977E+01-2.17653E+01
 -1       108 7.41516E+03 6.00918E+02 2.65074E+00 2.11962E+03-9.04667E+00-2.18790E+01
 -1       109 6.97546E+03 6.51769E+02-4.68029E+00 2.14964E+03-7.70174E+00-2.15605E+01
 -1       110 6.54466E+03 7.05156E+02-1.69904E+00 2.16505E+03-9.43138E+00-2.15510E+01
 -1       111 6.15321E+03 7.60117E+02 8.30009E+00 2.15990E+03-9.92624E+00-1.88641E+01
 -1       112 5.74037E+03 7.88084E+02-4.39905E-01 2.13286E+03-7.24853E+00-2.13113E+01
 -1       113 5.34948E+03 8.17505E+02-7.23762E-01 2.09812E+03-8.53465E+00-2.05852E+01
 -1       114 4.98798E+03 8.35368E+02 2.04315E+00 2.04499E+03-9.41369E+00-1.88526E+01
 -1       115 4.62600E+03 8.39868E+02-7.13210E-01 1.97496E+03-7.56402E+00-2.08925E+01
 -1       116 4.26618E+03 8.39470E+02-1.50566E+00 1.90062E+03-8.64807E+00-1.84629E+01
 -1       117 3.94617E+03 8.37922E+02 3.79298E+00 1.81795E+03-1.23559E+01-1.63846E+01
 -1       118 3.60475E+03 8.16965E+02-2.32818E+00 1.71878E+03-7.16339E+00-1.89412E+01
 -1       119 3.30691E+03 7.99194E+02 3.14103E+00 1.62268E+03-9.00725E+00-1.56620E+01
 -1       120 2.99592E+03 7.63394E+02 2.41974E+00 1.51221E+03-8.15179E+00-1.69760E+01
 -1       121 2.70456E+03 7.25354E+02 1.37090E+00 1.40069E+03-8.95478E+00-1.71444E+01
 -1       122 2.42751E+03 6.81603E+02 3.11829E+00 1.28288E+03-7.97791E+00-1.49379E+01
 -1       123 2.14525E+03 6.24866E+02-7.38639E-01 1.15939E+03-6.46045E+00-1.78313E+01
 -1       124 1.87683E+03 5.74338E+02-6.49834E-01 1.03844E+03-8.51640E+00-1.57218E+01
 -1       125 1.61695E+03 5.16040E+02 9.66936E-01 9.12927E+02-8.79848E+00-1.56479E+01
 -1       126 1.37586E+03 4.51633E+02 5.87645E+00 7.83025E+02-8.74438E+00-1.44232E+01
 -1       127 1.11367E+03 3.75568E+02-1.55521E+00 6.47834E+02-5.50340E+00-1.71945E+01
 -1       128 8.82179E+02 3.11416E+02 1.51801E+00 5.22106E+02-8.87996E+00-1.33754E+01
 -1       129 6.44485E+02 2.30863E+02-1.25228E-01 3.84982E+02-6.35034E+00-1.48553E+01
 -1       130 4.20815E+02 1.50945E+02-2.99054E+00 2.53569E+02-5.72440E+00-7.03547E+00
 -1       131 2.17179E+02 7.73575E+01 4.67994E+00 1.53441E+02-5.68559E+00 2.57748E+00
 -1       132 1.04803E+04-2.91476E+02-2.75148E+02-5.82255E+01 4.97219E+01 1.26638E+01
 -1       133 1.09821E+04 1.71530E+01-2.96595E+01 6.41002E+02 3.31950E-01 8.40133E+00
 -1       134 1.07419E+04 7.42737E+01 1.00402E+01 9.83453E+02 1.41413E+00 2.74969E+01
 -1       135 1.03514E+04 1.42917E+02 1.15230E+01 1.26118E+03 6.28486E+00 2.67281E+01
 -1       136 9.92735E+03 2.11011E+02 7.13121E-01 1.46919E+03 1.86315E+00 2.37453E+01
 -1       137 9.44319E+03 2.84535E+02 6.31498E+00 1.66091E+03 6.26859E+00 2.20691E+01
 -1       138 8.99643E+03 3.57041E+02 5.73162E-01 1.80481E+03 4.11933E+00 2.28530E+01
 -1       139 8.51349E+03 4.31810E+02 3.92526E+00 1.93640E+03 5.31705E+00 2.28302E+01
 -1       140 8.07610E+03 5.01792E+02 4.25418E+00 2.01692E+03 6.87528E+00 2.23094E+01
 -1       141 7.63129E+03 5.67969E+02 3.43996E-01 2.08823E+03 4.13297E+00 2.00676E+01
 -1       142 7.18072E+03 6.31800E+02 3.28094E+00 2.13818E+03 6.67289E+00 1.88391E+01
 -1       143 6.74579E+03 6.88759E+02 2.86964E+00 2.16324E+03 6.23822E+00 2.07996E+01
 -1       144 6.34469E+03 7.31464E+02 3.23379E+00 2.15570E+03 7.76637E+00 2.01796E+01
 -1       145 5.92680E+03 7.74527E+02 4.25715E+00 2.14697E+03 6.98719E+00 1.71258E+01
 -1       146 5.54735E+03 8.04593E+02 1.53876E+00 2.11563E+03 7.10488E+00 1.77355E+01
 -1       147 5.16588E+03 8.23905E+02 2.66612E+00 2.06184E+03 7.64389E+00 1.77406E+01
 -1       148 4.79853E+03 8.41435E+02 1.61155E+00 2.01248E+03 6.87142E+00 1.58284E+01
 -1       149 4.44039E+03 8.47312E+02 1.22048E+00 1.94034E+03 7.65629E+00 1.58020E+01
 -1       150 4.09526E+03 8.42330E+02 3.53999E+00 1.85791E+03 8.23798E+00 1.58375E+01
 -1       151 3.78215E+03 8.22671E+02-1.36090E+00 1.76583E+03 6.92386E+00 1.55971E+01
 -1       152 3.44987E+03 8.12575E+02 1.42624E+00 1.67388E+03 8.62771E+00 1.49658E+01
 -1       153 3.13917E+03 7.81144E+02 3.74259E+00 1.56737E+03 7.97179E+00 1.43033E+01
 -1       154 2.84240E+03 7.45607E+02 3.20259E+00 1.45491E+03 7.40295E+00 1.37528E+01
 -1       155 2.57046E+03 6.97613E+02-7.92553E-01 1.33994E+03 7.27645E+00 1.35623E+01
 -1       156 2.27751E+03 6.58916E+02-2.38419E-01 1.22411E+03 6.37600E+00 1.55432E+01
 -1       157 2.01588E+03 5.94560E+02 3.42028E+00 1.09263E+03 7.89030E+00 1.34219E+01
 -1       158 1.75933E+03 5.36959E+02-1.10365E+00 9.72234E+02 6.61499E+00 1.36834E+01
 -1       159 1.48675E+03 4.82976E+02 2.90169E+00 8.47037E+02 7.21845E+00 1.26162E+01
 -1       160 1.24855E+03 4.06945E+02 1.21319E+00 7.12315E+02 5.83076E+00 1.34694E+01
 -1       161 9.97009E+02 3.47751E+02-3.12226E-01 5.88653E+02 6.07780E+00 1.20467E+01
 -1       162 7.60191E+02 2.65890E+02 2.34150E+00 4.47846E+02 7.44288E+00 1.21619E+01
 -1       163 5.30928E+02 1.91434E+02 1.10134E+00 3.16862E+02 7.00703E+00 9.78448E+00
 -1       164 3.41322E+02 1.14715E+02 2.97054E-01 1.84755E+02 1.10724E+00 5.92958E+00
 -1       165 1.19222E+04 2.97452E+02 3.56132E+02 2.62717E+02-8.33746E+01-1.04260E+03
 -1       166 1.09519E+04 6.24092E-01 1.69584E+00 4.24613E+02-5.71940E+01-8.25666E+01
 -1       167 1.09080E+04 4.65059E+01-1.47081E+00 8.28675E+02 7.56035E+00 2.37940E+01
 -1       168 1.05809E+04 1.05576E+02 4.53702E+00 1.13178E+03 6.14527E+00 2.97713E+01
 -1       169 1.01705E+04 1.78401E+02 7.70229E+00 1.36962E+03 5.88524E+00 2.53149E+01
 -1       170 9.69447E+03 2.43909E+02-1.01817E+00 1.57187E+03 4.59402E+00 2.92330E+01
 -1       171 9.24163E+03 3.22164E+02 5.21393E+00 1.73887E+03 7.71845E+00 2.28558E+01
 -1       172 8.75747E+03 3.90210E+02-2.34015E+00 1.87606E+03 5.04604E+00 2.87911E+01
 -1       173 8.31451E+03 4.68603E+02 3.68002E+00 1.98416E+03 9.51249E+00 2.07440E+01
 -1       174 7.86075E+03 5.37840E+02 3.68948E+00 2.05953E+03 5.34394E+00 2.25632E+01
 -1       175 7.40711E+03 5.96334E+02-1.43103E+00 2.11800E+03 5.91151E+00 2.45574E+01
 -1       176 6.96866E+03 6.60012E+02-4.56789E-02 2.15643E+03 8.73211E+00 2.32940E+01
 -1       177 6.55919E+03 7.13121E+02 3.19910E+00 2.16668E+03 9.59235E+00 1.96131E+01
 -1       178 6.13960E+03 7.54821E+02 2.29501E+00 2.15800E+03 7.36613E+00 2.11905E+01
 -1       179 5.74492E+03 7.90451E+02 1.28653E+00 2.13574E+03 9.17214E+00 2.07919E+01
 -1       180 5.36284E+03 8.19974E+02 4.63375E+00 2.09502E+03 8.32498E+00 1.79798E+01
 -1       181 4.97949E+03 8.32267E+02-5.58696E-01 2.04053E+03 7.15388E+00 2.06520E+01
 -1       182 4.61965E+03 8.45297E+02-3.86665E-01 1.97989E+03 9.18501E+00 1.89064E+01
 -1       183 4.27249E+03 8.46910E+02 1.70601E+00 1.90422E+03 9.47905E+00 1.80375E+01
 -1       184 3.94127E+03 8.34636E+02 1.46665E+00 1.81619E+03 9.59146E+00 1.79099E+01
 -1       185 3.60784E+03 8.13460E+02-4.63747E+00 1.72027E+03 8.59984E+00 1.77391E+01
 -1       186 3.29770E+03 7.99383E+02 1.94844E+00 1.62424E+03 1.02936E+01 1.72654E+01
 -1       187 2.99597E+03 7.66614E+02 3.30814E+00 1.51510E+03 9.50337E+00 1.66137E+01
 -1       188 2.71043E+03 7.24917E+02 2.22852E+00 1.40103E+03 9.68238E+00 1.57505E+01
 -1       189 2.41262E+03 6.72436E+02-5.68866E+00 1.28126E+03 7.84899E+00 1.65488E+01
 -1       190 2.15279E+03 6.32109E+02 3.06607E+00 1.16241E+03 8.86864E+00 1.45263E+01
 -1       191 1.88529E+03 5.69561E+02 9.74811E-01 1.03515E+03 8.17002E+00 1.46727E+01
 -1       192 1.61499E+03 5.06532E+02-2.81108E+00 9.09382E+02 6.90938E+00 1.52770E+01
 -1       193 1.37501E+03 4.50483E+02 5.62153E+00 7.83173E+02 9.02332E+00 1.40143E+01
 -1       194 1.11765E+03 3.76726E+02-7.61614E-01 6.49038E+02 5.82328E+00 1.72988E+01
 -1       195 8.83508E+02 3.12965E+02 4.56249E+00 5.20055E+02 8.79778E+00 1.29059E+01
 -1       196 6.43463E+02 2.30586E+02 1.22306E+00 3.83925E+02 8.77176E+00 1.17206E+01
 -1       197 4.21536E+02 1.52379E+02-9.03781E-01 2.53089E+02 5.80876E+00 6.95671E+00
 -1       198 2.20298E+02 7.86534E+01 6.74185E+00 1.53239E+02 4.35793E+00-1.53723E+00
 -1       199-8.84992E+03 2.54762E+02 2.96428E+02-5.98771E+02-6.20918E+01 1.43799E+02
 -1       200-9.39428E+03-3.01057E+01 3.60164E+01-5.68113E+02 2.08578E+00 2.68809E+01
 -1       201-9.22825E+03-7.40929E+01 1.19206E+01-8.01488E+02 1.09046E+01 1.62750E+01
 -1       202-8.88714E+03-1.24808E+02-1.81341E+00-1.03071E+03 1.82362E+00 6.94898E+00
 -1       203-8.53170E+03-1.79021E+02-8.01215E-01-1.22166E+03 1.24683E+00 5.71071E+00
 -1       204-8.17022E+03-2.39109E+02 6.19851E-02-1.38499E+03 2.12608E-01 7.44853E+00
 -1       205-7.81835E+03-2.98099E+02 7.54246E+00-1.51546E+03 4.34516E+00 5.33483E+00
 -1       206-7.44704E+03-3.58487E+02 8.84131E+00-1.62544E+03 7.77968E+00 5.30417E+00
 -1       207-7.06229E+03-4.21924E+02 8.29312E-01-1.72482E+03 5.62925E+00 8.71958E+00
 -1       208-6.69965E+03-4.81163E+02 5.66507E-01-1.79195E+03 4.10816E+00 7.20599E+00
 -1       209-6.35475E+03-5.31836E+02 5.85454E+00-1.83169E+03 3.30659E+00 6.09986E+00
 -1       210-6.00002E+03-5.77114E+02 7.52963E+00-1.85773E+03 7.65289E+00 6.57708E+00
 -1       211-5.63375E+03-6.24767E+02-1.52465E+00-1.87360E+03 3.00925E+00 8.78078E+00
 -1       212-5.29812E+03-6.62063E+02 1.02485E+00-1.86957E+03 1.82603E+00 9.58321E+00
 -1       213-4.95920E+03-6.89892E+02-2.00134E+00-1.84663E+03 3.02915E+00 9.43569E+00
 -1       214-4.63890E+03-7.07649E+02 1.45368E+00-1.81314E+03 5.50871E+00 7.74219E+00
 -1       215-4.33763E+03-7.15340E+02 3.64440E+00-1.76007E+03 4.07622E+00 7.29991E+00
 -1       216-4.02851E+03-7.18158E+02 4.41369E+00-1.70046E+03 5.62959E+00 8.00612E+00
 -1       217-3.71606E+03-7.19889E+02 1.66413E+00-1.63814E+03 6.70838E+00 9.50044E+00
 -1       218-3.42578E+03-7.09716E+02 2.72160E+00-1.56145E+03 6.03425E+00 7.26309E+00
 -1       219-3.14274E+03-6.92797E+02-9.12067E-01-1.47409E+03 2.61097E+00 9.88376E+00
 -1       220-2.87769E+03-6.59707E+02 2.63855E+00-1.37887E+03 5.44511E+00 8.65905E+00
 -1       221-2.60984E+03-6.26015E+02 3.42301E+00-1.27949E+03 5.49834E+00 9.45530E+00
 -1       222-2.34601E+03-5.87313E+02 2.39275E+00-1.17506E+03 5.38897E+00 9.14257E+00
 -1       223-2.08976E+03-5.37863E+02 2.74625E+00-1.06199E+03 7.82217E+00 9.42056E+00
 -1       224-1.82854E+03-4.95209E+02 1.17741E+00-9.55600E+02 7.48787E+00 1.03099E+01
 -1       225-1.58638E+03-4.40927E+02 3.30756E+00-8.39044E+02 6.69355E+00 9.98641E+00
 -1       226-1.34250E+03-3.80270E+02 1.39674E+00-7.18077E+02 8.19278E+00 1.05279E+01
 -1       227-1.10113E+03-3.17635E+02-1.84558E+00-5.90637E+02 4.41792E+00 9.88759E+00
 -1       228-8.70273E+02-2.48516E+02 3.10594E+00-4.69187E+02 7.59833E+00 1.01019E+01
 -1       229-6.35115E+02-1.77648E+02 1.62010E+00-3.39727E+02 7.55526E+00 1.04360E+01
 -1       230-4.05418E+02-1.08284E+02 2.35827E+00-2.13103E+02 6.36178E+00 9.30128E+00
 -1       231-1.84551E+02-6.78229E+01 2.30351E+00-1.01610E+02 5.02995E+00 3.83219E+00
 -1       232-9.96390E+03-2.71085E+02-2.30249E+02-2.19894E+02 4.06910E+00-5.91858E+02
 -1       233-9.35506E+03-2.40581E+01 4.40432E+00-4.59382E+02 4.74588E+01-1.48635E+01
 -1       234-9.32408E+03-6.00551E+01 4.84503E+00-6.78179E+02 2.05456E+01 1.49774E+01
 -1       235-9.05055E+03-1.07086E+02-2.79774E+00-9.12937E+02 8.26525E+00 1.33651E+01
 -1       236-8.71244E+03-1.60315E+02-6.40058E+00-1.12412E+03 2.00940E+00 7.55092E+00
 -1       237-8.34921E+03-2.13611E+02-2.50343E+00-1.30123E+03 1.10803E+00 8.38849E+00
 -1       238-7.97702E+03-2.66180E+02 4.64518E+00-1.44821E+03 3.63709E+00 7.66142E+00
 -1       239-7.61065E+03-3.29051E+02 5.55627E+00-1.56712E+03 7.45302E+00 7.56072E+00
 -1       240-7.25259E+03-3.94412E+02 1.25339E+00-1.67204E+03 3.81887E+00 9.70873E+00
 -1       241-6.88121E+03-4.55853E+02-2.67931E+00-1.75580E+03 7.02692E+00 8.54870E+00
 -1       242-6.51556E+03-5.07354E+02 9.59420E-01-1.80861E+03 7.91919E+00 8.28969E+00
 -1       243-6.16009E+03-5.53745E+02 4.88391E+00-1.84057E+03 7.10018E+00 8.69185E+00
 -1       244-5.81888E+03-6.07499E+02-1.51288E+00-1.86323E+03 5.72132E+00 9.74585E+00
 -1       245-5.46695E+03-6.44138E+02-9.77151E-01-1.86893E+03 2.53579E+00 1.16709E+01
 -1       246-5.12864E+03-6.78254E+02-1.50922E+00-1.85554E+03 2.69064E+00 8.10428E+00
 -1       247-4.80216E+03-6.98923E+02-2.12974E+00-1.82777E+03 3.96864E+00 9.13077E+00
 -1       248-4.48033E+03-7.10227E+02 1.90807E+00-1.78325E+03 8.48540E+00 9.36108E+00
 -1       249-4.17349E+03-7.15480E+02 3.45223E+00-1.72670E+03 6.35254E+00 9.82762E+00
 -1       250-3.87458E+03-7.20917E+02-2.78813E-01-1.66706E+03 4.92271E+00 1.10799E+01
 -1       251-3.57235E+03-7.14987E+02 1.00482E+00-1.59739E+03 7.59970E+00 8.88790E+00
 -1       252-3.28456E+03-7.02376E+02-3.92271E-01-1.51634E+03 5.37757E+00 9.58561E+00
 -1       253-3.00312E+03-6.70919E+02 3.57679E+00-1.42372E+03 5.99884E+00 1.05438E+01
 -1       254-2.73864E+03-6.40756E+02 3.29253E+00-1.32636E+03 6.86835E+00 1.14465E+01
 -1       255-2.47480E+03-6.04706E+02 2.54778E+00-1.22482E+03 6.72582E+00 1.20170E+01
 -1       256-2.21202E+03-5.59832E+02 3.70122E+00-1.11560E+03 7.91958E+00 1.12800E+01
 -1       257-1.96452E+03-5.17579E+02 6.45446E-01-1.00921E+03 5.97127E+00 1.21522E+01
 -1       258-1.70859E+03-4.66221E+02 1.86911E+00-8.94829E+02 8.68551E+00 1.15765E+01
 -1       259-1.46405E+03-4.07875E+02 3.22135E+00-7.77032E+02 6.28572E+00 9.42609E+00
 -1       260-1.22655E+03-3.50551E+02-2.63622E+00-6.53481E+02 8.21122E+00 1.05135E+01
 -1       261-9.88196E+02-2.80407E+02 3.81243E-01-5.28145E+02 6.20567E+00 1.09855E+01
 -1       262-7.53296E+02-2.10746E+02 3.25092E+00-4.03276E+02 7.53407E+00 1.04512E+01
 -1       263-5.21223E+02-1.40543E+02 1.62507E+00-2.74489E+02 8.07924E+00 1.06229E+01
 -1       264-2.91579E+02-7.50099E+01 3.99787E+00-1.51984E+02 4.38027E+00 8.64987E+00
 -1       265-9.74636E+01 4.16567E+00-2.56665E+00-4.94402E+01-5.29109E+00 3.89330E+00
 -1       266-8.84903E+03 2.57008E+02 2.96752E+02-5.97552E+02 5.92292E+01-1.41586E+02
 -1       267-9.39284E+03-2.79453E+01 3.68509E+01-5.68648E+02-3.29988E+00-2.59757E+01
 -1       268-9.21398E+03-7.25473E+01 7.74170E+00-8.04678E+02-7.03119E+00-1.11273E+01
 -1       269-8.90848E+03-1.24125E+02 6.93690E+00-1.02279E+03-5.22849E+00-6.54592E+00
 -1       270-8.53056E+03-1.80210E+02-1.11906E+00-1.22110E+03-1.71210E+00-5.17696E+00
 -1       271-8.19071E+03-2.35761E+02 9.90478E+00-1.37404E+03-6.57481E+00-3.95923E+00
 -1       272-7.79962E+03-2.98174E+02 1.17406E+00-1.52247E+03-4.36965E+00-7.70417E+00
 -1       273-7.43560E+03-3.62124E+02 3.35468E+00-1.63611E+03-3.64327E+00-7.86681E+00
 -1       274-7.08097E+03-4.21807E+02 4.81671E+00-1.71461E+03-2.79602E+00-8.99605E+00
 -1       275-6.70725E+03-4.79835E+02 3.30311E+00-1.78520E+03-3.36817E+00-6.13178E+00
 -1       276-6.34167E+03-5.32462E+02 3.69322E+00-1.84023E+03-3.30206E+00-6.77865E+00
 -1       277-5.98335E+03-5.85554E+02-1.55693E-01-1.86407E+03-1.17561E+00-1.08134E+01
 -1       278-5.65451E+03-6.20065E+02 3.60673E+00-1.86794E+03-3.62160E+00-9.48968E+00
 -1       279-5.29408E+03-6.61404E+02-1.40600E+00-1.86697E+03-2.97148E+00-7.21672E+00
 -1       280-4.97999E+03-6.83309E+02 4.90349E+00-1.84358E+03-3.49423E+00-7.10484E+00
 -1       281-4.65355E+03-7.00705E+02 5.81020E+00-1.80491E+03-7.48869E+00-7.62294E+00
 -1       282-4.31919E+03-7.21043E+02-2.14821E+00-1.76301E+03-3.27024E+00-8.94040E+00
 -1       283-4.01798E+03-7.25707E+02 3.87868E+00-1.70921E+03-4.90480E+00-8.23808E+00
 -1       284-3.71700E+03-7.19681E+02 1.52327E+00-1.63845E+03-6.06557E+00-8.91406E+00
 -1       285-3.42539E+03-7.11676E+02-1.07681E-01-1.56048E+03-2.40491E+00-9.23077E+00
 -1       286-3.15362E+03-6.84387E+02 3.60491E+00-1.46940E+03-5.94807E+00-8.56703E+00
 -1       287-2.86723E+03-6.64104E+02 1.92442E+00-1.38296E+03-6.93076E+00-9.77286E+00
 -1       288-2.60302E+03-6.26864E+02 4.91250E-01-1.27677E+03-4.33145E+00-9.23005E+00
 -1       289-2.34668E+03-5.87893E+02 2.61777E+00-1.17676E+03-5.25986E+00-9.69662E+00
 -1       290-2.07867E+03-5.46786E+02 1.47984E+00-1.06867E+03-6.89392E+00-9.81690E+00
 -1       291-1.84025E+03-4.90682E+02 2.18411E+00-9.51772E+02-5.24963E+00-9.13219E+00
 -1       292-1.59490E+03-4.32752E+02 2.67485E+00-8.32916E+02-6.43105E+00-1.02344E+01
 -1       293-1.34981E+03-3.71539E+02-3.52704E-01-7.10787E+02-5.44239E+00-1.01806E+01
 -1       294-1.10383E+03-3.15312E+02 1.14908E+00-5.92708E+02-7.14935E+00-9.68032E+00
 -1       295-8.81467E+02-2.41351E+02 2.79144E+00-4.63691E+02-5.65387E+00-1.04913E+01
 -1       296-6.43595E+02-1.70869E+02 8.90879E-01-3.35165E+02-6.11078E+00-1.02214E+01
 -1       297-4.11284E+02-1.01420E+02 2.02366E+00-2.06511E+02-4.85068E+00-7.87145E+00
 -1       298-1.82933E+02-6.70850E+01 1.71673E+00-1.01605E+02-4.48747E+00-2.77108E+00
 -1       299-9.96982E+03-2.91538E+02-2.22585E+02-2.07975E+02-3.13063E+01 5.84811E+02
 -1       300-9.35317E+03-2.54113E+01-9.90890E-01-4.59537E+02-4.96115E+01 1.69218E+01
 -1       301-9.32332E+03-5.89739E+01 2.69446E+00-6.80224E+02-1.73901E+01-1.21748E+01
 -1       302-9.04704E+03-9.89421E+01 3.27450E+00-9.11512E+02-1.00808E+01-7.91177E+00
 -1       303-8.71823E+03-1.61130E+02-6.05397E+00-1.11924E+03-5.18709E+00-9.82151E+00
 -1       304-8.33931E+03-2.07377E+02 3.80092E+00-1.29545E+03-5.74961E+00-6.12467E+00
 -1       305-7.99161E+03-2.71767E+02 1.11465E+00-1.44520E+03-2.61616E+00-8.77494E+00
 -1       306-7.61344E+03-3.32860E+02-6.09805E-02-1.57506E+03-6.92885E+00-8.68619E+00
 -1       307-7.24209E+03-3.90661E+02 2.54843E+00-1.67134E+03-5.99377E+00-7.05115E+00
 -1       308-6.88620E+03-4.51607E+02-5.63404E-02-1.74661E+03-4.78020E+00-9.93682E+00
 -1       309-6.52214E+03-5.08473E+02 6.65267E-02-1.80868E+03-2.63466E+00-9.95115E+00
 -1       310-6.15758E+03-5.57161E+02 2.97570E+00-1.84915E+03-2.18628E+00-9.87262E+00
 -1       311-5.80685E+03-6.01039E+02 1.37457E+00-1.86183E+03-5.05681E+00-8.98867E+00
 -1       312-5.48001E+03-6.48008E+02-6.18321E+00-1.86532E+03-4.64873E+00-1.07209E+01
 -1       313-5.12817E+03-6.70816E+02 1.97097E+00-1.85180E+03-5.29356E+00-9.15048E+00
 -1       314-4.80397E+03-6.90442E+02 4.39243E+00-1.81970E+03-7.12057E+00-9.13936E+00
 -1       315-4.49038E+03-7.15727E+02-1.61290E+00-1.78223E+03-5.53053E+00-9.96560E+00
 -1       316-4.17001E+03-7.21046E+02 6.58806E-01-1.73221E+03-4.40598E+00-1.01830E+01
 -1       317-3.86695E+03-7.22133E+02 2.61701E+00-1.67161E+03-3.64435E+00-7.58621E+00
 -1       318-3.57048E+03-7.14668E+02 1.17208E+00-1.59810E+03-5.78383E+00-1.09545E+01
 -1       319-3.27962E+03-6.91281E+02 5.47360E+00-1.51187E+03-6.26447E+00-9.66231E+00
 -1       320-3.01463E+03-6.75734E+02-5.81224E-01-1.42507E+03-5.14696E+00-1.17093E+01
 -1       321-2.73332E+03-6.43420E+02 7.28345E-01-1.32765E+03-7.96094E+00-9.85900E+00
 -1       322-2.47275E+03-6.06732E+02 1.15898E+00-1.22537E+03-6.41371E+00-1.25638E+01
 -1       323-2.21592E+03-5.68520E+02-3.99817E-01-1.12088E+03-5.84092E+00-1.06208E+01
 -1       324-1.95526E+03-5.16083E+02 2.40374E+00-1.00793E+03-9.54749E+00-1.10402E+01
 -1       325-1.71343E+03-4.59785E+02 2.83337E+00-8.90188E+02-7.18105E+00-1.19941E+01
 -1       326-1.47232E+03-4.00255E+02 1.32330E+00-7.70119E+02-7.54778E+00-1.25385E+01
 -1       327-1.23545E+03-3.47478E+02-3.67341E+00-6.53068E+02-6.13544E+00-1.25690E+01
 -1       328-9.87157E+02-2.74981E+02 3.16566E+00-5.25586E+02-1.02118E+01-1.19287E+01
 -1       329-7.63157E+02-2.05223E+02 1.24286E+00-3.98018E+02-7.13629E+00-1.29358E+01
 -1       330-5.27120E+02-1.34843E+02 1.66032E+00-2.69964E+02-7.44172E+00-1.15828E+01
 -1       331-2.98593E+02-7.58889E+01 6.04228E-01-1.50596E+02-2.06257E+00-9.04701E+00
 -1       332-9.66097E+01 1.62572E+00-5.08171E+00-4.96161E+01 3.18264E+00-2.91104E+00
 -1       333-5.41521E+03-2.24518E+03-2.31157E+03 3.30420E+02-1.41691E+01 2.99247E+02
 -1       334 5.54103E+03 2.10157E+03 2.21630E+03 4.50333E+02-1.63599E+01-2.90237E+02
 -1       335-2.91534E+03-1.27904E+03-1.18610E+03-3.47118E+02 3.72636E+01-5.14699E+02
 -1       336 5.37334E+03 2.20273E+03 2.23556E+03 2.70653E+02-5.15572E+00 3.44596E+02
 -1       337 1.57624E+03 6.26250E+02 6.78530E+02-1.25635E+02 6.35819E+00-1.87924E+00
 -1       338 1.89912E+03 6.31146E+02 7.24675E+02-3.80411E+02 1.40823E+01-1.93937E+02
 -1       339-5.97562E+03-2.49192E+03-2.66497E+03 4.10245E+02-3.43991E+01-3.89907E+02
 -1       340 1.93458E+03 6.43886E+02 7.36487E+02-3.94358E+02-9.24398E+00 2.02940E+02
 -1       341-2.76586E+03-1.21721E+03-1.12519E+03-3.98625E+02-4.15762E+01 5.34292E+02
 -1       342-1.74671E+03-6.58057E+02-6.81379E+02-2.34834E+02-3.15019E+01 9.37566E+01
 -1       343 6.29011E+03 2.17171E+03 2.34699E+03 3.61327E+02-3.60569E+01-9.94523E+02
 -1       344-6.15929E+03-2.64256E+03-2.60919E+03 1.87448E+02-6.93853E+01-1.01456E+03
 -1       345 6.27926E+03 2.17601E+03 2.35741E+03 3.50470E+02 3.24035E+01 9.97593E+02
 -1       346-6.23293E+03-2.47638E+03-2.59291E+03 2.99092E+02 3.06638E+01 1.00791E+03
 -1       347-2.34669E+03-8.78573E+02-9.56536E+02-1.48241E+02 2.69593E+01-9.28289E+01
 -1       348 1.00371E+04 3.53296E+03 3.74530E+03 9.84102E+02-2.64766E+02-2.10391E+03
 -1       349 9.50730E+03 3.79935E+03 3.75911E+03 1.81627E+03 5.13220E+00-1.08731E+03
 -1       350 6.55249E+03 2.52811E+03 2.61608E+03-4.60861E+02 9.52877E+01-1.51568E+03
 -1       351 9.51786E+03 3.80345E+03 3.76445E+03 1.81810E+03-6.04374E+00 1.07655E+03
 -1       352 1.00387E+04 3.53451E+03 3.74414E+03 9.84047E+02 2.64903E+02 2.10010E+03
 -1       353 6.56424E+03 2.53084E+03 2.62089E+03-4.61612E+02-9.48258E+01 1.51696E+03
 -1       354-9.27328E+03-3.75833E+03-3.84873E+03 6.99370E+02-2.02481E+02 1.79920E+03
 -1       355-6.55996E+03-2.94413E+03-2.89324E+03-3.61923E+02-1.69300E+01 1.52550E+03
 -1       356-8.80986E+03-3.95930E+03-3.91875E+03 1.40440E+03 8.66610E+01 1.02036E+03
 -1       357-9.21888E+03-3.78684E+03-3.82639E+03 6.31770E+02 1.91221E+02-1.79097E+03
 -1       358-8.54526E+03-3.88659E+03-3.88434E+03 1.21768E+03-3.90516E+01-1.07219E+03
 -1       359-6.54284E+03-2.93605E+03-2.88326E+03-3.87225E+02 1.79109E+01-1.54779E+03
 -1       360 8.92766E+03 3.63253E+03 3.59741E+03 1.57139E+03 5.30864E+00 2.32427E+02
 -1       361 8.87683E+03 3.61030E+03 3.58796E+03 1.54981E+03 2.45348E+01 7.09005E+02
 -1       362 5.97430E+03 2.27248E+03 2.43315E+03 3.41312E+02-1.77579E+01 6.05768E+02
 -1       363 8.88995E+03 3.62023E+03 3.59398E+03 1.65387E+03-2.69570E+01-6.96331E+02
 -1       364 9.20730E+03 3.70701E+03 3.67404E+03 1.80853E+03 1.83363E+01-1.54184E+02
 -1       365 5.50080E+03 2.15617E+03 2.24882E+03 4.06488E+02 2.75831E+01 6.05143E+01
 -1       366 6.05915E+03 2.22807E+03 2.44137E+03 4.15122E+02 1.50551E+01-5.72889E+02
 -1       367 7.91605E+02 3.11969E+02 2.69237E+02-9.39880E+02 5.01044E+01-5.41346E+01
 -1       368 3.91019E+03 1.63210E+03 1.64390E+03-6.96543E+02 1.39806E+01-8.65863E+02
 -1       369 4.38758E+03 1.75029E+03 1.67563E+03-1.68402E+02-2.65622E+01-6.07936E+02
 -1       370-4.87607E+03-2.12111E+03-2.18620E+03-6.97285E+02-6.31463E-01 1.20434E+03
 -1       371-1.82981E+03-7.76034E+02-7.91054E+02-9.39113E+02-1.02088E+01 5.15362E+02
 -1       372-1.99014E+02-1.17014E+02-1.49111E+02-5.14458E+02 7.40742E+00 1.76861E+02
 -1       373-4.53759E+03-1.99665E+03-1.90567E+03-1.91085E+02 5.98092E+00 7.77072E+02
 -1       374-8.68916E+03-3.96349E+03-3.96693E+03 1.39004E+03-3.06855E+01-7.33018E+02
 -1       375-8.59558E+03-3.90541E+03-3.93908E+03 1.35799E+03-6.97293E+00-2.67613E+02
 -1       376-6.19145E+03-2.55317E+03-2.69718E+03 3.04343E+02-3.28961E+01-6.39638E+02
 -1       377-8.37655E+03-3.78470E+03-3.79304E+03 1.37972E+03 2.09897E+01 1.57424E+02
 -1       378-8.08776E+03-3.66879E+03-3.68248E+03 1.25390E+03 2.84013E+01 6.50382E+02
 -1       379-5.66072E+03-2.32323E+03-2.44820E+03 3.95765E+02 3.44868E+01-8.21617E+01
 -1       380-5.92966E+03-2.37945E+03-2.57524E+03 3.11627E+02 1.90486E+01 5.81458E+02
 -1       381 3.94242E+03 1.64559E+03 1.65733E+03-7.11571E+02-1.43162E+01 8.76107E+02
 -1       382 8.09357E+02 3.18249E+02 2.74955E+02-9.56310E+02-4.97754E+01 6.34851E+01
 -1       383 4.39758E+03 1.75570E+03 1.68284E+03-1.78880E+02 2.60793E+01 6.18491E+02
 -1       384-1.90448E+03-8.10101E+02-8.24529E+02-9.09797E+02 9.67629E+00-5.05292E+02
 -1       385-4.89632E+03-2.12592E+03-2.19001E+03-6.69913E+02-5.66536E+00-1.20444E+03
 -1       386-2.76149E+02-1.48964E+02-1.79510E+02-4.97974E+02-5.44552E+00-1.65681E+02
 -1       387-4.57091E+03-2.00993E+03-1.90780E+03-1.83869E+02-3.92346E+00-7.61416E+02
 -1       388-4.27904E+03-1.90973E+03-1.89992E+03-2.77209E+01-2.23236E-01-2.40410E+02
 -1       389-3.96314E+03-1.75405E+03-1.71399E+03-1.87047E+00-1.77118E+01 5.74990E+01
 -1       390-4.41173E+03-1.96601E+03-1.95478E+03-1.56824E+02-1.79887E+00 3.82798E+02
 -1       391-3.69496E+03-1.64329E+03-1.63443E+03-9.34685E+01-3.82678E-01 1.94894E+02
 -1       392-2.16999E+03-9.50195E+02-9.40512E+02-3.53108E+02-2.31461E+00 2.85832E+02
 -1       393-2.05080E+03-8.80131E+02-8.90613E+02-1.28869E+02-1.45683E+01 9.31074E+00
 -1       394 3.73944E+03 1.50771E+03 1.49437E+03 5.97083E+01-2.00908E+01-9.67432E+01
 -1       395 3.65571E+03 1.50984E+03 1.52100E+03 1.57029E+01 4.80760E-01 1.58788E+02
 -1       396 3.99567E+03 1.64873E+03 1.66020E+03-7.36907E+01 6.26081E-01-2.75074E+02
 -1       397 1.57984E+03 6.60759E+02 6.72269E+02-2.66374E+02 1.17969E+00-1.22844E+02
 -1       398-4.77235E+03-2.13332E+03-2.12070E+03-1.07293E+02 1.01542E+00-4.20002E+02
 -1       399-2.58162E+03-1.13383E+03-1.12334E+03-3.03126E+02 2.13136E+00-2.66017E+02
 -1       400-1.72926E+02-6.81712E+01-7.55180E-01-3.61706E+02-2.26354E+01-5.62523E+01
 -1       401 1.59591E+03 6.67276E+02 6.79264E+02-2.89677E+02-1.33452E+00 1.26094E+02
 -1       402 3.86343E+03 1.59523E+03 1.60745E+03-8.32978E+01-6.57594E-01 2.99630E+02
 -1       403 1.43387E+02 4.34812E+01 1.49010E+02-3.76887E+02 1.44686E+01 4.54158E+01
 -1       404-1.18664E+02-9.74227E+00-1.54595E+01-2.16434E+02-3.52294E+01-2.29674E+01
 -1       405-4.99219E+02-1.69894E+02-1.60701E+02-2.36005E+02 5.43308E+01 1.51622E+01
 -1       406-7.41194E+01 2.66905E+02 1.54695E+01 1.07219E+02-2.52550E+01 1.49360E+01
 -1       407-7.35657E+01 2.67395E+02 1.43251E+01 1.07292E+02 2.61906E+01-1.57407E+01
 -1       408-2.00084E+02 1.65104E+01-7.80088E+01 2.19139E+02-5.34291E+00 1.17079E+00
 -1       409-1.35338E+02 1.03176E+02-1.84521E+01 1.97710E+02 2.73967E+01-1.46542E+01
 -1       410-1.12226E+02 2.17345E+02 1.13137E-02 1.58622E+02 8.93833E+00-4.77358E+00
 -1       411-1.15990E+01 3.76411E+02 7.74754E+01 8.30063E+01 4.34432E+00-2.17639E+00
 -1       412-1.41997E+02 9.36293E+01-1.93458E+01 2.02453E+02-2.69711E+01 1.78506E+01
 -1       413-1.88413E+02 3.09998E+01-7.63058E+01 2.14504E+02 3.94807E+00-3.12441E+00
 -1       414 2.44033E+00 3.80412E+02 8.10732E+01 7.20961E+01-3.30974E+00 3.15127E+00
 -1       415-8.13694E+01 2.96235E+02 2.81349E+01 1.14379E+02-8.16552E+00 8.18470E-01
 -1       416-1.80153E+02 3.64502E+00-4.72037E+01 2.23553E+02-4.38193E+00 3.67107E+00
 -1       417 1.80496E+00 3.53063E+02 4.59437E+01 6.96650E+01 7.04305E+00 5.19251E-02
 -1       418-1.70400E+02 1.87659E+01-4.53764E+01 2.05588E+02 5.27472E+00-6.71367E+00
 -1       419-2.72912E+00 3.58924E+02 4.50849E+01 5.75824E+01-7.37409E+00 3.76815E-01
 -1       420-1.29300E+02 1.63169E+02-1.87594E+01 1.86764E+02-7.90150E+00 7.10974E+00
 -1       421-1.12686E+02 1.74146E+00-4.82741E+01 2.05680E+02 3.73383E+00 6.03726E-01
 -1       422-9.86602E+01-2.12723E+00-2.48137E+01 1.92630E+02 6.86211E+00 2.95519E+00
 -1       423-1.76247E+02-1.47182E+00-2.96314E+01 2.41356E+02-1.05617E+01 4.83955E+00
 -1       424-9.85984E+01 4.29206E+00-2.71082E+01 1.84510E+02-8.19355E+00-2.08495E+00
 -1       425-1.14860E+02 5.23093E+00-4.67871E+01 1.94620E+02-9.36260E-01-2.38830E+00
 -1       426-1.47075E+02 2.17022E+01-2.19641E+01 2.22248E+02 1.24420E+01-1.44723E+01
 -1       427-2.02054E+01 3.47512E+02 2.23967E+01 5.33743E+01-1.58444E+01 3.81095E+00
 -1       428 1.53567E+01 2.94195E+02 3.02323E+01 3.45467E+01 2.25231E+00-8.90829E+00
 -1       429 7.89229E-01 3.15347E+02 4.97994E+01 3.57445E+01 1.76170E+00-5.03195E+00
 -1       430 7.58750E+00 3.06153E+02 4.78053E+01 4.44288E+01 1.16119E+00 2.48051E+00
 -1       431 1.29401E+01 2.85116E+02 2.82954E+01 4.19996E+01-3.05140E+00 8.35536E+00
 -1       432-2.11803E+01 3.49023E+02 2.28621E+01 5.36852E+01 1.83922E+01-2.79859E+00
 -1       433-1.25837E+02 1.01154E+01-7.26849E+01 2.02912E+02-4.88507E-01-1.78303E-01
 -1       434-1.28163E+02 4.85814E+00-7.92467E+01 1.96034E+02 8.42576E-01 1.34323E-01
 -1       435-1.87230E+02 1.90943E+01-6.63117E+01 2.12574E+02 2.63668E+00-3.15618E+00
 -1       436-1.12035E+02 1.59225E+01-7.70830E+01 1.97895E+02-1.19982E+00-3.56060E+00
 -1       437-1.25308E+02 1.71821E+00-6.76924E+01 1.93147E+02-1.16178E+00 8.25666E-01
 -1       438-1.89322E+02 2.81469E+01-8.21775E+01 2.14556E+02 1.26292E+00-1.80488E+00
 -1       439-1.89041E+02 7.57191E+00-7.03543E+01 2.16899E+02-7.54613E+00 6.39996E+00
 -1       440-1.25621E+02 6.86315E+01-8.76994E+00 2.11002E+02-2.06633E+01 1.84837E+01
 -1       441-1.12092E+02 1.36255E+02-8.04403E+00 1.67516E+02-3.05988E+01 1.73064E+01
 -1       442-1.55959E+02 4.13215E+01-3.45215E+01 2.19849E+02-1.72542E+01 1.26730E+01
 -1       443-7.07660E+01 2.27380E+02 2.11264E+00 1.23215E+02-2.95873E+01 1.95930E+01
 -1       444-3.45864E+01 3.17603E+02 1.92030E+01 6.43339E+01-2.48838E+01 9.79726E+00
 -1       445-1.10894E+02 1.79760E+02 9.66630E-01 1.48023E+02-2.81093E+01 1.66784E+01
 -1       446-3.09901E+01 3.33412E+02 3.69213E+01 6.40361E+01-1.63161E+01 7.28210E+00
 -1       447 9.62151E+00 3.20194E+02 8.11688E+01 5.17422E+01-6.52650E-02-6.49542E-01
 -1       448-1.67782E+00 3.23227E+02 7.45601E+01 4.92885E+01 2.12796E-01 4.62665E-01
 -1       449-1.64451E+00 3.75498E+02 6.71722E+01 7.55276E+01 3.91937E+00-6.33015E-01
 -1       450 1.54446E+01 3.05422E+02 6.91005E+01 4.59883E+01-6.32921E-01 1.20568E-01
 -1       451-2.43274E+00 2.96432E+02 7.79086E+01 4.49647E+01 3.01721E+00 3.22099E+00
 -1       452-6.36566E+00 3.72948E+02 8.40997E+01 7.90352E+01 2.61300E+00-8.77511E-01
 -1       453 5.06746E+00 3.79292E+02 6.95367E+01 6.53645E+01-1.08872E+01 2.53605E+00
 -1       454-1.13511E+02 1.41220E+02-6.97564E+00 1.65825E+02 3.09489E+01-1.61323E+01
 -1       455-1.28874E+02 5.38496E+01-1.44048E+01 2.12475E+02 2.24655E+01-1.56560E+01
 -1       456-1.46925E+02 4.41256E+01-3.76693E+01 2.19648E+02 1.61831E+01-1.12179E+01
 -1       457-3.54858E+01 3.17856E+02 1.72821E+01 6.57866E+01 2.54771E+01-1.07680E+01
 -1       458-7.05379E+01 2.29540E+02 1.82001E+00 1.23169E+02 3.03581E+01-1.99259E+01
 -1       459-1.05819E+02 1.89063E+02 3.10302E+00 1.45871E+02 2.74359E+01-1.56303E+01
 -1       460-2.99357E+01 3.42670E+02 4.00752E+01 6.47361E+01 1.64694E+01-7.26843E+00
 -1       461-1.45598E+02 1.25859E+02-2.62247E+01 1.95332E+02-1.88668E+01 1.57277E+01
 -1       462-1.03711E+02 2.11932E+02 5.98946E-01 1.47579E+02-2.31889E+01 1.18477E+01
 -1       463-7.27653E+01 2.98779E+02 3.39220E+01 1.12422E+02-1.83936E+01 1.24936E+01
 -1       464-3.75844E+01 3.54570E+02 6.25035E+01 7.68810E+01-9.71379E+00 1.70605E+00
 -1       465-3.31283E+01 3.57851E+02 5.39546E+01 7.08434E+01-1.47665E+01 1.09890E+01
 -1       466-1.03524E+02 2.34264E+02 4.86694E+00 1.52242E+02-8.20538E+00 5.65243E-01
 -1       467-9.60461E+01 2.39238E+02 9.72423E+00 1.35548E+02 2.09063E+01-9.78903E+00
 -1       468-1.29969E+02 1.61832E+02-1.52768E+01 1.74686E+02 2.01333E+01-1.35307E+01
 -1       469-4.39422E+01 3.49031E+02 5.05308E+01 8.06154E+01 1.33485E+01-1.17013E+01
 -1       470-5.70915E+01 3.08957E+02 3.98513E+01 1.12777E+02 1.32559E+01-4.11270E+00
 -1       471-1.68851E+02 4.37997E+01-4.69609E+01 2.26399E+02-1.55888E+01 7.69514E+00
 -1       472-1.65318E+02 6.61815E+01-5.45270E+01 2.17488E+02-9.21105E+00 7.77493E+00
 -1       473-1.62260E+02 8.09878E+01-5.16119E+01 2.10591E+02 2.75799E-01 1.85502E-01
 -1       474-1.54082E+02 1.09153E+02-4.07515E+01 1.95161E+02 1.12957E+01-9.53717E+00
 -1       475-1.60443E+02 5.98310E+01-4.65184E+01 2.20975E+02 1.41652E+01-6.20920E+00
 -1       476-4.81411E+01 3.41559E+02 5.41763E+01 9.04781E+01 6.79081E-01-1.67027E+00
 -1       477-9.07098E+01 2.69667E+02 1.69595E+01 1.36831E+02-4.58040E-01-2.54623E+00
 -1       478-1.35028E+02 1.81468E+02-1.13592E+01 1.78100E+02 2.78688E-01 3.02669E+00
 -1       479 2.71808E+03 7.02959E+02 4.70265E+00 1.38303E+03-1.16435E+01-2.04387E+01
 -1       480 1.63332E+03 4.95664E+02 4.22610E+00 8.98433E+02-1.09166E+01-1.74707E+01
 -1       481 6.60181E+02 2.24071E+02-5.41906E-01 3.84357E+02 9.60968E+00 1.81275E+01
 -1       482 3.93505E+03 8.22548E+02 1.18611E+01 1.79261E+03-1.21728E+01-2.10837E+01
 -1       483 3.30168E+03 7.78155E+02 1.02490E+01 1.60190E+03 1.19582E+01 1.79736E+01
 -1       484 2.13758E+03 6.28181E+02 8.81912E+00 1.15113E+03 9.68752E+00 8.93612E+00
 -1       485 1.14268E+03 3.58841E+02 5.70426E-01 6.47790E+02 1.16004E+01 1.97585E+01
 -1       486 4.62517E+03 8.24738E+02 1.44049E+01 1.95752E+03 1.16109E+01 2.08082E+01
 -1       487 9.66528E+03 2.22283E+02 3.31636E+01 1.52992E+03-1.57759E+01-2.75994E+01
 -1       488 8.69988E+03 3.78854E+02 3.14053E+01 1.85307E+03-1.21033E+01-2.65092E+01
 -1       489 1.05661E+04 1.01346E+02 4.29185E+01 1.10995E+03 1.51341E+01 3.60819E+01
 -1       490 6.94446E+03 6.38399E+02 2.29119E+01 2.12641E+03-1.15535E+01-2.29065E+01
 -1       491 5.75302E+03 7.61729E+02 1.53862E+01 2.10948E+03-1.24469E+01-2.45078E+01
 -1       492 7.80648E+03 5.24269E+02 2.76166E+01 2.03662E+03-1.33011E+01-2.17150E+01
 -1       493 1.14213E+04-7.74915E+00 2.68269E+02 5.08622E+02 1.95182E+01-1.42857E+02
 -1       494 1.10323E+04 4.94631E+01 8.57849E+01 8.48833E+02-9.75863E+00-1.86715E+01
 -1       495 4.29710E+02 1.45575E+02-1.29749E+00 2.48026E+02-7.56741E+00-1.37437E+01
 -1       496 4.94331E+03 8.24747E+02 1.91625E+01 2.02272E+03-1.25936E+01-1.11872E+01
 -1       497 8.75249E+02 3.04240E+02 6.78559E+00 5.07217E+02-9.41864E+00-8.51479E+00
 -1       498 9.14600E+03 3.07129E+02 3.62344E+01 1.71045E+03 1.44053E+01 2.33374E+01
 -1       499 6.49474E+03 7.03212E+02 2.71652E+01 2.14505E+03 1.34824E+01 1.13613E+01
 -1       500 5.34033E+03 8.01147E+02 1.68828E+01 2.07226E+03 1.22039E+01 1.83849E+01
 -1       501 8.22084E+03 4.57311E+02 3.53460E+01 1.96321E+03 1.52879E+01 1.21593E+01
 -1       502 7.39677E+03 5.78864E+02 2.57068E+01 2.09291E+03 1.24938E+01 2.41103E+01
 -1       503 1.18200E+04-7.20944E+02 1.29008E+03 5.10777E+02-1.38675E+01 3.01613E+02
 -1       504 3.03222E+02 1.24548E+02 2.13708E+01 1.32994E+02 3.06434E+00 8.33261E+00
 -1       505 2.70881E+03 7.01889E+02 5.73037E+00 1.37458E+03 1.26162E+01 2.18925E+01
 -1       506 1.63932E+03 4.96743E+02 1.97169E-01 9.06523E+02 9.62190E+00 1.83755E+01
 -1       507 3.92933E+03 8.14373E+02 9.96717E+00 1.78537E+03 1.21517E+01 2.28195E+01
 -1       508 3.28257E+03 7.91581E+02 1.36495E+01 1.60601E+03-1.11541E+01-8.29799E+00
 -1       509 2.16874E+03 6.07015E+02 3.33220E+00 1.15244E+03-1.13134E+01-1.97980E+01
 -1       510 1.10393E+04 4.75525E+01 8.34782E+01 8.43015E+02 9.26904E+00 1.50728E+01
 -1       511 1.05452E+04 8.43491E+01 3.67648E+01 1.11241E+03-1.55827E+01-2.81657E+01
 -1       512 1.01036E+04 1.75003E+02 4.33481E+01 1.34402E+03-1.33530E+01-2.92871E+01
 -1       513 9.82994E+03 1.95510E+02 5.86268E+01 1.45099E+03 1.27145E+00 1.95944E-01
 -1       514 6.46996E+02 2.20073E+02-1.30734E+00 3.75737E+02-1.03047E+01-1.79085E+01
 -1       515 2.42331E+03 6.61660E+02 7.32819E+00 1.26390E+03-9.57899E+00-1.83528E+01
 -1       516 2.44407E+03 6.61930E+02 3.45195E+00 1.27867E+03 9.95550E+00 1.95487E+01
 -1       517 4.99886E+03 8.07046E+02 1.25298E+01 2.02189E+03 1.29380E+01 2.30309E+01
 -1       518 4.60360E+03 8.28180E+02 1.23827E+01 1.95830E+03-1.17133E+01-2.21424E+01
 -1       519 3.62668E+03 8.02506E+02 6.27268E+00 1.71856E+03 6.11623E+00 1.51614E+01
 -1       520 3.63588E+03 7.97389E+02 5.84097E+00 1.71322E+03-1.17155E+01-1.97610E+01
 -1       521 8.24454E+03 4.40784E+02 2.32598E+01 1.96597E+03-9.22609E+00-1.32322E+01
 -1       522 6.51550E+03 6.87877E+02 1.46111E+01 2.15258E+03-7.91913E+00-1.32040E+01
 -1       523 6.10550E+03 7.44309E+02 2.05193E+01 2.13079E+03-1.31421E+01-2.04824E+01
 -1       524 5.91213E+03 7.56116E+02 2.91228E+01 2.12401E+03-8.18988E-01-2.30476E-01
 -1       525 6.95888E+03 6.41310E+02 2.42540E+01 2.12697E+03 1.25576E+01 2.21495E+01
 -1       526 1.89483E+03 5.55899E+02 2.96149E+00 1.02630E+03 1.22997E+01 1.99266E+01
 -1       527 1.89944E+03 5.56571E+02 3.85497E+00 1.02846E+03-1.04296E+01-1.89453E+01
 -1       528 5.35769E+03 7.98287E+02 1.59766E+01 2.07634E+03-1.20208E+01-2.06327E+01
 -1       529 8.81629E+02 2.95451E+02 2.83327E+00 5.06822E+02 1.12002E+01 1.57353E+01
 -1       530 1.13907E+03 3.61069E+02-3.93346E-01 6.47181E+02-1.07398E+01-1.89771E+01
 -1       531 7.80007E+03 5.19009E+02 2.51789E+01 2.03635E+03 1.34429E+01 2.24593E+01
 -1       532 8.73508E+03 3.75299E+02 3.19929E+01 1.85154E+03 1.25878E+01 2.54374E+01
 -1       533 1.36921E+03 4.29784E+02 3.24073E+00 7.59410E+02-1.02174E+01-1.86835E+01
 -1       534 9.12430E+03 3.07009E+02 3.97959E+01 1.72133E+03-1.84198E+01-1.26550E+01
 -1       535 1.35944E+03 4.35411E+02 5.87286E+00 7.59691E+02 9.47473E+00 1.32736E+01
 -1       536 4.26037E+03 8.27683E+02 5.29643E+00 1.89632E+03-4.19234E+00-1.17148E+01
 -1       537 7.36489E+03 5.81630E+02 2.46042E+01 2.08231E+03-1.29707E+01-2.53335E+01
 -1       538 4.27881E+03 8.23270E+02 8.56012E+00 1.88121E+03 1.03816E+01 2.04122E+01
 -1       539 3.00400E+03 7.46828E+02 4.80431E+00 1.50029E+03-1.16875E+01-1.80153E+01
 -1       540 3.00011E+03 7.44525E+02 4.66705E+00 1.49487E+03 1.15072E+01 1.90368E+01
 -1       541 1.12246E+04-1.74564E+01 2.54849E+02 7.13313E+02-1.26537E+00-6.87769E-01
 -1       542 1.07289E+04 7.16253E+01 8.63011E+01 1.01343E+03-1.10050E+00 3.31653E-01
 -1       543 9.65500E+03 2.27038E+02 3.70276E+01 1.54963E+03 1.34289E+01 2.76410E+01
 -1       544 1.16699E+04-1.01155E+03 1.08182E+03 2.58620E+02-1.02016E+01-3.55660E+02
 -1       545 6.12361E+03 7.35585E+02 1.52153E+01 2.13672E+03 1.38374E+01 2.02718E+01
 -1       546 5.52017E+03 7.88381E+02 2.73462E+01 2.09483E+03-4.04311E-02-1.83039E+00
 -1       547 5.30654E+02 2.00895E+02 1.80857E-01 3.19233E+02-2.81573E-02 6.29239E-01
 -1       548 1.00505E+04 1.69499E+02 4.07831E+01 1.35844E+03 1.83859E+01 2.28501E+01
 -1       549 7.76181E+02 2.72180E+02-1.75445E+00 4.62108E+02 9.70150E-02-1.22969E+00
 -1       550 9.35961E+03 2.72654E+02 5.77907E+01 1.64755E+03-1.77643E+00 9.05548E-01
 -1       551 1.73791E+03 5.39269E+02 4.91277E+00 9.64874E+02-5.31986E-02 1.51195E+00
 -1       552 2.02042E+03 5.98848E+02 5.03495E+00 1.10090E+03 3.56430E-01 3.25443E+00
 -1       553 3.15731E+03 7.71977E+02 8.25721E+00 1.56457E+03 4.13830E-01-2.61842E+00
 -1       554 1.50272E+03 4.78039E+02 3.46872E+00 8.50841E+02 9.12774E-01 7.72855E-01
 -1       555 4.09144E+03 8.32021E+02 1.53084E+01 1.85247E+03-4.33431E-01-7.59314E-01
 -1       556 2.85346E+03 7.32165E+02 9.57684E+00 1.44508E+03-5.53864E-02 5.27402E-02
 -1       557 3.43594E+03 8.03923E+02 1.28441E+01 1.66193E+03-1.68876E+00-8.46096E-03
 -1       558 3.75517E+03 8.13733E+02 1.41837E+01 1.75454E+03 7.56383E-01-1.11897E+00
 -1       559 9.93545E+02 3.43165E+02 2.67505E+00 5.80769E+02-1.25114E+00 7.21107E-01
 -1       560 1.25327E+03 4.07547E+02 3.38079E+00 7.12325E+02 6.40804E-02 3.67496E-01
 -1       561 2.28538E+03 6.43500E+02 6.33070E+00 1.21181E+03-2.53609E-01-2.34176E+00
 -1       562 4.39669E+03 8.32279E+02 1.77425E+01 1.91901E+03-2.44829E+00-2.17091E+00
 -1       563 5.14808E+03 8.11692E+02 2.33972E+01 2.05038E+03-6.00041E-01 2.36879E+00
 -1       564 8.92310E+03 3.35994E+02 4.74989E+01 1.78046E+03 8.14795E-01-3.36127E+00
 -1       565 8.41627E+03 4.17673E+02 4.50582E+01 1.91211E+03-4.43001E-01-1.21008E+00
 -1       566 7.57872E+03 5.53174E+02 4.22430E+01 2.06535E+03 7.74762E-01-6.16736E-01
 -1       567 7.14231E+03 6.15584E+02 4.02607E+01 2.11537E+03 4.84352E-01 1.01927E+00
 -1       568 8.02386E+03 4.83619E+02 4.47824E+01 2.00033E+03 1.57476E+00 1.95422E+00
 -1       569 6.68029E+03 6.71811E+02 3.14795E+01 2.13884E+03-5.85793E-01-1.96665E+00
 -1       570 2.56491E+03 6.88953E+02 8.66062E+00 1.32985E+03-1.32756E-01 1.25472E+00
 -1       571 4.78670E+03 8.29303E+02 1.98681E+01 2.00030E+03-5.06402E-01-4.17988E+00
 -1       572 6.31883E+03 7.17845E+02 3.21719E+01 2.14493E+03 1.39419E+00 1.92491E+00
 -1       573 5.73777E+03 7.69976E+02 1.80146E+01 2.10725E+03 1.20137E+01 2.34134E+01
 -1       574 1.03108E+04 1.25890E+02 6.47806E+01 1.24013E+03 1.36860E+00-1.02562E+00
 -1       575 3.26969E+02 1.30003E+02 2.66325E+01 1.27203E+02-5.19539E+00-9.57038E+00
 -1       576 1.14255E+04-6.85510E+00 2.73802E+02 5.12451E+02-1.89891E+01 1.40675E+02
 -1       577 4.35036E+02 1.45006E+02-3.17748E+00 2.50114E+02 8.20477E+00 1.41100E+01
 -1       578 1.14168E+04-6.54134E+01 7.37096E+02 4.58136E+02-2.04995E+00 7.26185E+00
 -1       579 1.17145E+04-5.83830E+02 5.37581E+02 2.34379E+02 1.45926E+01-8.07039E+02
 -1       580 1.17156E+04-5.79102E+02 5.59711E+02 2.39945E+02-1.96644E+01 8.20253E+02
 -1       581 2.95455E+02 1.01831E+02 1.25412E+01 1.39104E+02-8.57932E+00-1.49712E+01
 -1       582 2.93803E+02 1.12345E+02 1.91832E+01 1.26598E+02 8.88076E+00 1.22364E+01
 -1       583 4.05497E+02 1.30351E+02 5.31555E+00 2.30170E+02 1.76161E-01-7.87357E-01
 -1       584 1.20003E+04 1.04250E+03 2.34817E+03 1.41806E+03-2.82456E+01-1.07477E+03
 -1       585 1.27858E+04 1.06417E+03 1.97035E+03 9.47028E+02-3.37234E+02-1.86077E+03
 -1       586 1.10181E+04-2.20293E+02 3.11060E+01 9.90289E+01 7.80862E+01-3.75367E+02
 -1       587 1.27880E+04 1.06956E+03 1.98882E+03 9.51929E+02 3.39280E+02 1.87349E+03
 -1       588 1.20208E+04 1.06151E+03 2.36757E+03 1.43241E+03 3.19499E+01 1.08666E+03
 -1       589 1.10213E+04-2.19643E+02 4.28404E+01 1.02215E+02-7.97155E+01 3.78926E+02
 -1       590 1.95602E+02 8.33180E+01 1.38638E+01 1.27082E+02 1.30427E+01 7.70593E+00
 -1       591 2.16835E+02 1.08614E+02 2.39202E+01 1.25565E+02 8.85525E+00 1.12736E+01
 -1       592 3.23642E+02 9.73356E+01 5.48539E+00 1.65225E+02 6.30587E+00 5.82484E+00
 -1       593 2.15308E+02 9.58334E+01 1.79922E+01 1.35013E+02-9.40602E+00-1.64790E+01
 -1       594 2.01205E+02 8.32893E+01 1.38937E+01 1.34466E+02-1.28669E+01-8.25910E+00
 -1       595 3.20139E+02 9.76106E+01 4.22472E+00 1.64996E+02-5.49694E+00-9.36777E+00
 -1       596 1.23977E+04 1.47303E+03 2.92706E+03 1.62540E+03-9.97391E+01 6.55984E+02
 -1       597 1.25194E+04 1.64847E+03 3.02972E+03 1.67461E+03 8.84875E+01 2.47512E+02
 -1       598 1.17290E+04-7.51124E+02 1.02303E+03 2.76580E+02-4.29661E-01 6.39828E+02
 -1       599 1.22962E+04 1.17497E+03 2.70385E+03 1.46951E+03 2.28779E+01-1.94202E+02
 -1       600 1.23612E+04 1.39684E+03 2.84113E+03 1.50621E+03 4.73624E+01-7.03865E+02
 -1       601 1.16471E+04-7.62148E+02 1.27706E+03 3.34843E+02-3.47128E+01-3.08997E+01
 -1       602 1.17140E+04-8.11787E+02 9.64835E+02 2.32488E+02-3.86480E+00-6.52558E+02
 -1       603 2.16022E+02 9.83645E+01 1.34801E+01 1.27735E+02-1.84068E+00-5.27979E+00
 -1       604 2.21849E+02 1.14795E+02 2.37173E+01 1.25139E+02-3.94393E+00-7.22419E+00
 -1       605 3.07567E+02 1.21083E+02 2.15407E+01 1.33095E+02-8.18554E+00-9.40771E+00
 -1       606 2.22604E+02 9.98460E+01 2.38253E+01 1.28471E+02 4.78310E+00 1.01816E+01
 -1       607 2.14258E+02 1.10537E+02 1.43991E+01 1.30285E+02 2.34878E+00 4.20486E+00
 -1       608 3.07935E+02 1.21908E+02 1.78343E+01 1.33238E+02-2.98206E+00-2.38673E+00
 -1       609 2.99103E+02 1.23027E+02 2.36949E+01 1.29972E+02 6.98292E+00 1.51795E+01
 -1       610 1.12886E+04 3.81942E+01 1.15883E+02 5.86466E+02-1.39466E+01 6.38645E+01
 -1       611 1.13212E+04 8.41188E+01 2.60160E+02 3.71299E+02 6.37241E+01 2.17734E+02
 -1       612 1.14169E+04-2.85537E+01 4.45791E+02 3.91558E+02 2.27866E+00 4.23698E+02
 -1       613 1.09253E+04 7.88814E+01 3.85986E+01 9.21101E+02-3.22386E+00-2.73151E+01
 -1       614 1.10387E+04 4.15070E+01 4.33978E+01 7.49827E+02-2.63784E+00-1.67495E+00
 -1       615 1.12138E+04 1.62009E+01 1.61234E+02 6.79758E+02-2.09372E+01 4.15154E+01
 -1       616 1.04701E+04 1.10893E+02 2.26250E+01 1.18910E+03-6.71882E+00-3.03659E+01
 -1       617 1.06805E+04 7.96950E+01 2.07887E+01 1.03675E+03-9.42896E+00-3.71707E+01
 -1       618 1.07780E+04 6.28183E+01 5.21527E+01 9.77063E+02-1.36095E+01-3.25482E+01
 -1       619 1.00299E+04 1.89787E+02 1.93501E+01 1.40308E+03-8.27444E+00-2.82064E+01
 -1       620 1.02328E+04 1.55423E+02 2.25731E+01 1.30224E+03-1.20480E+01-2.74338E+01
 -1       621 1.03661E+04 1.36408E+02 5.18325E+01 1.24401E+03-1.35734E+01-3.17366E+01
 -1       622 9.54285E+03 2.48705E+02 1.47368E+01 1.60049E+03-8.53973E+00-2.82750E+01
 -1       623 9.80624E+03 2.10895E+02 1.84189E+01 1.49373E+03-1.14474E+01-2.90671E+01
 -1       624 9.88331E+03 1.98318E+02 3.61557E+01 1.43383E+03-1.36441E+01-2.72197E+01
 -1       625 9.08894E+03 3.30772E+02 2.16616E+01 1.75474E+03-1.03245E+01-3.08751E+01
 -1       626 9.29648E+03 2.89832E+02 1.97024E+01 1.68594E+03-1.60853E+01-2.19922E+01
 -1       627 9.39497E+03 2.63319E+02 3.64712E+01 1.63725E+03-1.97105E+01-2.24707E+01
 -1       628 8.62293E+03 4.03700E+02 1.30030E+01 1.88271E+03-8.82302E+00-3.24390E+01
 -1       629 8.87523E+03 3.58736E+02 1.77683E+01 1.82059E+03-1.31967E+01-3.00975E+01
 -1       630 8.95872E+03 3.48052E+02 4.74130E+01 1.79098E+03-1.36182E+01-2.15074E+01
 -1       631 8.17357E+03 4.73407E+02 1.88454E+01 1.99960E+03-6.63065E+00-2.37504E+01
 -1       632 8.40064E+03 4.26155E+02 9.30403E+00 1.93878E+03-1.06446E+01-2.93762E+01
 -1       633 8.47064E+03 4.08268E+02 2.77967E+01 1.90969E+03-1.20972E+01-2.45097E+01
 -1       634 7.71751E+03 5.46178E+02 1.43685E+01 2.06647E+03-7.05228E+00-2.04208E+01
 -1       635 7.94104E+03 5.10191E+02 1.45034E+01 2.03164E+03-1.39484E+01-1.99761E+01
 -1       636 8.06867E+03 4.93559E+02 3.73868E+01 2.01485E+03-1.25852E+01-2.36390E+01
 -1       637 7.28387E+03 6.04029E+02 1.10306E+01 2.10362E+03-1.01736E+01-2.63120E+01
 -1       638 7.49380E+03 5.74483E+02 1.41572E+01 2.08718E+03-1.16118E+01-2.14804E+01
 -1       639 7.60958E+03 5.61170E+02 3.16214E+01 2.06862E+03-1.22905E+01-2.46919E+01
 -1       640 6.85283E+03 6.60032E+02 9.24227E+00 2.13308E+03-8.72451E+00-3.09339E+01
 -1       641 7.08543E+03 6.27805E+02 1.42473E+01 2.12617E+03-1.18649E+01-2.52724E+01
 -1       642 7.16655E+03 6.06674E+02 2.71232E+01 2.10304E+03-1.22420E+01-2.39744E+01
 -1       643 6.44035E+03 7.13309E+02 1.40745E+01 2.16118E+03-6.79705E+00-2.27722E+01
 -1       644 6.64573E+03 6.75401E+02 5.35194E+00 2.14629E+03-1.15968E+01-2.73647E+01
 -1       645 6.71675E+03 6.58467E+02 1.62857E+01 2.13716E+03-1.40581E+01-2.41948E+01
 -1       646 6.03873E+03 7.54982E+02 1.10088E+01 2.13514E+03-9.61951E+00-2.05431E+01
 -1       647 6.23163E+03 7.36869E+02 1.21692E+01 2.14925E+03-1.53410E+01-2.02074E+01
 -1       648 6.34664E+03 7.27271E+02 2.75583E+01 2.15540E+03-1.18648E+01-2.31433E+01
 -1       649 5.64667E+03 7.80226E+02 5.67603E+00 2.11397E+03-8.17832E+00-2.11563E+01
 -1       650 5.84921E+03 7.56234E+02 6.98078E+00 2.11945E+03-1.15175E+01-2.50171E+01
 -1       651 5.93435E+03 7.55863E+02 1.78478E+01 2.11999E+03-1.13455E+01-2.33791E+01
 -1       652 5.25393E+03 8.10651E+02 7.52693E+00 2.07324E+03-7.41472E+00-2.15005E+01
 -1       653 5.44971E+03 7.96545E+02 7.09345E+00 2.09391E+03-1.18878E+01-1.84128E+01
 -1       654 5.54567E+03 7.82033E+02 1.69437E+01 2.09691E+03-1.36621E+01-2.24883E+01
 -1       655 4.89374E+03 8.24835E+02 1.01799E+01 2.00805E+03-1.20814E+01-2.59692E+01
 -1       656 5.05402E+03 8.21000E+02 7.85818E+00 2.04358E+03-1.47777E+01-1.79033E+01
 -1       657 5.14008E+03 8.08493E+02 1.33131E+01 2.05301E+03-1.53267E+01-1.88413E+01
 -1       658 4.53326E+03 8.31030E+02 4.23459E+00 1.93946E+03-1.10264E+01-2.74833E+01
 -1       659 4.72386E+03 8.23169E+02 8.27982E+00 1.97958E+03-1.39061E+01-2.37854E+01
 -1       660 4.80534E+03 8.32959E+02 2.53767E+01 1.99864E+03-1.10934E+01-1.77472E+01
 -1       661 4.19030E+03 8.37161E+02 8.28447E+00 1.87984E+03-6.25106E+00-2.08599E+01
 -1       662 4.35774E+03 8.21826E+02-7.84336E-01 1.90793E+03-1.17789E+01-2.41378E+01
 -1       663 4.42294E+03 8.24781E+02 7.84481E+00 1.92447E+03-1.11699E+01-2.08277E+01
 -1       664 3.86757E+03 8.20070E+02 6.25721E+00 1.77669E+03-1.03796E+01-2.07802E+01
 -1       665 4.01623E+03 8.34134E+02 6.69344E+00 1.82764E+03-1.32047E+01-1.84389E+01
 -1       666 4.11569E+03 8.40583E+02 1.64303E+01 1.85606E+03-9.03363E+00-2.05098E+01
 -1       667 3.53396E+03 7.98373E+02 1.57682E+00 1.68986E+03-6.42246E+00-1.98162E+01
 -1       668 3.70934E+03 8.03393E+02 5.18727E+00 1.73396E+03-1.12990E+01-2.00471E+01
 -1       669 3.78457E+03 8.05231E+02 4.66865E+00 1.75090E+03-1.23046E+01-2.03572E+01
 -1       670 3.23986E+03 7.80161E+02 1.11151E+01 1.58245E+03-1.22863E+01-2.21618E+01
 -1       671 3.36537E+03 7.94076E+02 2.67700E+00 1.63738E+03-1.43024E+01-1.62931E+01
 -1       672 3.43176E+03 7.86953E+02 4.02608E+00 1.65525E+03-1.47342E+01-1.73570E+01
 -1       673 2.92790E+03 7.43278E+02 1.86310E+00 1.47524E+03-7.70479E+00-1.81627E+01
 -1       674 3.09000E+03 7.48763E+02 4.62387E+00 1.52970E+03-1.49342E+01-2.20799E+01
 -1       675 3.16654E+03 7.76222E+02 1.38790E+01 1.56017E+03-1.15702E+01-2.04222E+01
 -1       676 2.64357E+03 7.02143E+02 3.35932E+00 1.36379E+03-8.60034E+00-1.78675E+01
 -1       677 2.77975E+03 7.21852E+02 1.86039E+00 1.41683E+03-1.05509E+01-1.72699E+01
 -1       678 2.86725E+03 7.33441E+02 8.88677E+00 1.44289E+03-1.26139E+01-2.05169E+01
 -1       679 2.36004E+03 6.50115E+02 2.13180E+00 1.23495E+03-9.20040E+00-2.13824E+01
 -1       680 2.50301E+03 6.78665E+02 5.67322E+00 1.30387E+03-1.28846E+01-1.57876E+01
 -1       681 2.57092E+03 6.79184E+02 4.42878E+00 1.32720E+03-1.13105E+01-2.08597E+01
 -1       682 2.09182E+03 6.04226E+02 2.38386E+00 1.12795E+03-8.26583E+00-1.83405E+01
 -1       683 2.22798E+03 6.20904E+02-3.05084E-02 1.18119E+03-1.14890E+01-1.93532E+01
 -1       684 2.30060E+03 6.34845E+02 7.54305E+00 1.20556E+03-1.07018E+01-1.97214E+01
 -1       685 1.82421E+03 5.48566E+02 1.96655E+00 1.00096E+03-6.98820E+00-1.76169E+01
 -1       686 1.95409E+03 5.76059E+02 1.47046E+00 1.06192E+03-1.08736E+01-1.48079E+01
 -1       687 2.02490E+03 5.82000E+02 2.86209E+00 1.09229E+03-1.19990E+01-2.00535E+01
 -1       688 1.56458E+03 4.88034E+02 3.18246E+00 8.73142E+02-6.35531E+00-1.64413E+01
 -1       689 1.69043E+03 5.18617E+02 9.57901E-01 9.35279E+02-1.16419E+01-1.34744E+01
 -1       690 1.75899E+03 5.27205E+02 3.17989E+00 9.63400E+02-1.29190E+01-1.94558E+01
 -1       691 1.31482E+03 4.14459E+02 9.14503E-01 7.32893E+02-9.23079E+00-1.91960E+01
 -1       692 1.44116E+03 4.56299E+02 4.64235E+00 8.05406E+02-1.23361E+01-1.47935E+01
 -1       693 1.51211E+03 4.69785E+02 5.63571E+00 8.37256E+02-1.06119E+01-2.07685E+01
 -1       694 1.06443E+03 3.52902E+02-5.55958E-01 6.17576E+02-7.41356E+00-1.80178E+01
 -1       695 1.19390E+03 3.76032E+02-1.37195E+00 6.74796E+02-1.06872E+01-1.80071E+01
 -1       696 1.26086E+03 3.97886E+02 4.79070E+00 7.02223E+02-9.40667E+00-1.88355E+01
 -1       697 8.33686E+02 2.77039E+02 4.54994E+00 4.73354E+02-1.18353E+01-2.12942E+01
 -1       698 9.34888E+02 3.21096E+02 2.03128E+00 5.44123E+02-1.26125E+01-1.23070E+01
 -1       699 9.89913E+02 3.30186E+02-2.02121E+00 5.78080E+02-1.19976E+01-1.49938E+01
 -1       700 5.94341E+02 2.00505E+02-1.42533E+00 3.40555E+02-1.00290E+01-1.99962E+01
 -1       701 7.17684E+02 2.36257E+02 1.88189E+00 4.12296E+02-1.25079E+01-1.79765E+01
 -1       702 7.81785E+02 2.68949E+02 1.07667E+01 4.48920E+02-9.61898E+00-1.51651E+01
 -1       703 3.78009E+02 1.24728E+02-1.66761E+00 2.14572E+02-6.28530E+00-1.23504E+01
 -1       704 4.81753E+02 1.61696E+02-1.88155E+00 2.80686E+02-9.40187E+00-1.39583E+01
 -1       705 5.32541E+02 1.81796E+02-1.09464E+00 3.12095E+02-9.82836E+00-1.41944E+01
 -1       706 3.53560E+02 1.18577E+02 3.69357E+00 1.97928E+02-7.44304E+00-1.28143E+01
 -1       707 1.13211E+04 8.41588E+01 2.60131E+02 3.71821E+02-6.42932E+01-2.21277E+02
 -1       708 1.12866E+04 3.76197E+01 1.13265E+02 5.85279E+02 1.30472E+01-6.46564E+01
 -1       709 1.14195E+04-3.41383E+01 4.36625E+02 3.85456E+02-8.91390E+00-4.27946E+02
 -1       710 1.10372E+04 4.11541E+01 4.19637E+01 7.45846E+02 1.73262E+00-2.40206E+00
 -1       711 1.08936E+04 6.00941E+01 3.62108E+01 9.17307E+02 1.07641E+00 2.67197E+01
 -1       712 1.12163E+04 2.40277E+01 1.56853E+02 6.75998E+02 2.21783E+01-4.43584E+01
 -1       713 1.06671E+04 8.61679E+01 2.48046E+01 1.04328E+03 9.14579E+00 3.09466E+01
 -1       714 1.04641E+04 1.15806E+02 2.15866E+01 1.18842E+03 6.94684E+00 3.28324E+01
 -1       715 1.08105E+04 7.32249E+01 6.51334E+01 9.79269E+02 1.31739E+01 3.17570E+01
 -1       716 1.02267E+04 1.47520E+02 2.17456E+01 1.29978E+03 1.62316E+01 2.71151E+01
 -1       717 1.00152E+04 1.86943E+02 2.01958E+01 1.40477E+03 9.06296E+00 3.09602E+01
 -1       718 1.03473E+04 1.27806E+02 4.48097E+01 1.23881E+03 1.70089E+01 3.28570E+01
 -1       719 9.79086E+03 2.10395E+02 1.38586E+01 1.50195E+03 1.11092E+01 2.98295E+01
 -1       720 9.54984E+03 2.50052E+02 1.63343E+01 1.60758E+03 8.05568E+00 2.61993E+01
 -1       721 9.88041E+03 2.03586E+02 4.52835E+01 1.44929E+03 1.31492E+01 2.88789E+01
 -1       722 9.31374E+03 2.89752E+02 1.97630E+01 1.68122E+03 1.53423E+01 2.08516E+01
 -1       723 9.08248E+03 3.30307E+02 1.78685E+01 1.75332E+03 8.79211E+00 2.72297E+01
 -1       724 9.42225E+03 2.64876E+02 4.11799E+01 1.64054E+03 1.73386E+01 2.34958E+01
 -1       725 8.86761E+03 3.56059E+02 1.21016E+01 1.82142E+03 1.09115E+01 2.73026E+01
 -1       726 8.62252E+03 3.98806E+02 1.39115E+01 1.89496E+03 7.08002E+00 2.58018E+01
 -1       727 8.95019E+03 3.44408E+02 3.79505E+01 1.78097E+03 1.18077E+01 2.54828E+01
 -1       728 8.37463E+03 4.35614E+02 1.31148E+01 1.94580E+03 1.50650E+01 2.35565E+01
 -1       729 8.18863E+03 4.78458E+02 2.20411E+01 1.98630E+03 1.09504E+01 2.73958E+01
 -1       730 8.47352E+03 4.12169E+02 3.17236E+01 1.91512E+03 1.59244E+01 2.17147E+01
 -1       731 7.96739E+03 4.95512E+02 1.71509E+01 2.01793E+03 1.51753E+01 2.93880E+01
 -1       732 7.72095E+03 5.38808E+02 9.83561E+00 2.05581E+03 9.37465E+00 2.60395E+01
 -1       733 8.06005E+03 4.93023E+02 3.52599E+01 2.00501E+03 1.31166E+01 2.38849E+01
 -1       734 7.51232E+03 5.64248E+02 8.41137E+00 2.08522E+03 1.13657E+01 2.51053E+01
 -1       735 7.29039E+03 6.02302E+02 1.17181E+01 2.11717E+03 8.27915E+00 2.29875E+01
 -1       736 7.60421E+03 5.56159E+02 3.06728E+01 2.06432E+03 1.19982E+01 2.27759E+01
 -1       737 7.06890E+03 6.31140E+02 1.06284E+01 2.12957E+03 1.18806E+01 2.02272E+01
 -1       738 6.85125E+03 6.61508E+02 1.12050E+01 2.14533E+03 7.43787E+00 2.34524E+01
 -1       739 7.17723E+03 6.11886E+02 2.75106E+01 2.11647E+03 1.33485E+01 2.37462E+01
 -1       740 6.62437E+03 6.87275E+02 9.00056E+00 2.15093E+03 1.50845E+01 2.15621E+01
 -1       741 6.45351E+03 7.15284E+02 1.76581E+01 2.14801E+03 1.18278E+01 2.61329E+01
 -1       742 6.71618E+03 6.67150E+02 2.12819E+01 2.14014E+03 1.58930E+01 2.12868E+01
 -1       743 6.25068E+03 7.19590E+02 9.57578E+00 2.14081E+03 1.46697E+01 2.64497E+01
 -1       744 6.03106E+03 7.54203E+02 7.09515E+00 2.14083E+03 7.84330E+00 2.00686E+01
 -1       745 6.34330E+03 7.25130E+02 2.63262E+01 2.14742E+03 1.29992E+01 2.34179E+01
 -1       746 5.83081E+03 7.69637E+02 7.31298E+00 2.12514E+03 1.08169E+01 2.03943E+01
 -1       747 5.64556E+03 7.85967E+02 8.85260E+00 2.11182E+03 8.58150E+00 2.10774E+01
 -1       748 5.94126E+03 7.65449E+02 2.32935E+01 2.12701E+03 1.35250E+01 2.31570E+01
 -1       749 5.45388E+03 7.95785E+02 8.84916E+00 2.09229E+03 1.46503E+01 2.02899E+01
 -1       750 5.26426E+03 8.09355E+02 8.66534E+00 2.06461E+03 9.42115E+00 2.17613E+01
 -1       751 5.54281E+03 7.81582E+02 1.80230E+01 2.09029E+03 1.24938E+01 2.38713E+01
 -1       752 5.08662E+03 8.05779E+02 5.73482E+00 2.03687E+03 1.24009E+01 2.42268E+01
 -1       753 4.89632E+03 8.21777E+02 4.46904E+00 2.01764E+03 8.14444E+00 1.95346E+01
 -1       754 5.17232E+03 8.08716E+02 1.40539E+01 2.04576E+03 1.14209E+01 2.29403E+01
 -1       755 4.71006E+03 8.29188E+02 6.66193E+00 1.98233E+03 1.17701E+01 1.76570E+01
 -1       756 4.53414E+03 8.33425E+02 6.69203E+00 1.94890E+03 7.56689E+00 1.96640E+01
 -1       757 4.79966E+03 8.17972E+02 1.45526E+01 1.99356E+03 1.37144E+01 2.13448E+01
 -1       758 4.35968E+03 8.32898E+02 4.00360E+00 1.90889E+03 1.19723E+01 1.69649E+01
 -1       759 4.19209E+03 8.31520E+02 5.98651E+00 1.87118E+03 6.49689E+00 1.91712E+01
 -1       760 4.44568E+03 8.25919E+02 1.08613E+01 1.92155E+03 1.34411E+01 2.24437E+01
 -1       761 4.01720E+03 8.28461E+02 6.81350E+00 1.82187E+03 1.18314E+01 1.81660E+01
 -1       762 3.86137E+03 8.15947E+02 3.99164E+00 1.77174E+03 1.02090E+01 2.29282E+01
 -1       763 4.11152E+03 8.28872E+02 1.23975E+01 1.84357E+03 1.02600E+01 2.24013E+01
 -1       764 3.70140E+03 8.04121E+02 2.17595E+00 1.73421E+03 1.02360E+01 2.03751E+01
 -1       765 3.54112E+03 8.07638E+02 6.30596E+00 1.69592E+03 6.74840E+00 2.08291E+01
 -1       766 3.77579E+03 8.01278E+02 8.59926E+00 1.74559E+03 1.15791E+01 2.32761E+01
 -1       767 3.37733E+03 7.93542E+02 3.94419E+00 1.63698E+03 1.30375E+01 1.48860E+01
 -1       768 3.22470E+03 7.78153E+02 6.25480E+00 1.58544E+03 7.33203E+00 1.77493E+01
 -1       769 3.46296E+03 7.98789E+02 1.14195E+01 1.66590E+03 1.27027E+01 1.97034E+01
 -1       770 3.07299E+03 7.60961E+02 3.10038E+00 1.53005E+03 1.20567E+01 1.61688E+01
 -1       771 2.92757E+03 7.45278E+02 3.86095E+00 1.47608E+03 7.23380E+00 1.76795E+01
 -1       772 3.15675E+03 7.66202E+02 9.82594E+00 1.55374E+03 1.21669E+01 2.19636E+01
 -1       773 2.78026E+03 7.24227E+02 4.93698E+00 1.41502E+03 1.15667E+01 1.70126E+01
 -1       774 2.64636E+03 6.98026E+02 2.98726E+00 1.35318E+03 1.09674E+01 2.12859E+01
 -1       775 2.86291E+03 7.33126E+02 7.88865E+00 1.44227E+03 1.10307E+01 2.15021E+01
 -1       776 2.50490E+03 6.73088E+02 1.10842E+00 1.30474E+03 9.89252E+00 1.78271E+01
 -1       777 2.35480E+03 6.56605E+02 1.34297E+00 1.24760E+03 6.94534E+00 2.07355E+01
 -1       778 2.57641E+03 6.78360E+02 5.49472E+00 1.32565E+03 1.20276E+01 2.07738E+01
 -1       779 2.20530E+03 6.35136E+02-9.85755E-02 1.18386E+03 1.39245E+01 1.60178E+01
 -1       780 2.09927E+03 6.08117E+02 8.41236E+00 1.12105E+03 1.16793E+01 2.04692E+01
 -1       781 2.26834E+03 6.38478E+02 4.86071E-01 1.21084E+03 1.41015E+01 1.77672E+01
 -1       782 1.96906E+03 5.65850E+02 5.31277E+00 1.05934E+03 1.42821E+01 2.10511E+01
 -1       783 1.83015E+03 5.39513E+02-4.20889E-01 9.89315E+02 1.08225E+01 2.23092E+01
 -1       784 2.03611E+03 6.00527E+02 9.63939E+00 1.09684E+03 1.05924E+01 1.92295E+01
 -1       785 1.70001E+03 5.08236E+02-6.32483E-01 9.35059E+02 1.09467E+01 1.76005E+01
 -1       786 1.56225E+03 4.87847E+02 2.02889E+00 8.75458E+02 5.92822E+00 1.78651E+01
 -1       787 1.75917E+03 5.24272E+02 1.63982E+00 9.64037E+02 1.25811E+01 1.67306E+01
 -1       788 1.42909E+03 4.56872E+02 2.81266E+00 8.04034E+02 1.29859E+01 1.41138E+01
 -1       789 1.31662E+03 4.15055E+02 2.81794E+00 7.33522E+02 1.02075E+01 1.95213E+01
 -1       790 1.49792E+03 4.71894E+02 1.35393E+00 8.39555E+02 1.10181E+01 1.94583E+01
 -1       791 1.19619E+03 3.76460E+02-4.52685E-01 6.75332E+02 1.14376E+01 1.84774E+01
 -1       792 1.06956E+03 3.52105E+02 4.23750E-01 6.19282E+02 7.87087E+00 1.80102E+01
 -1       793 1.26548E+03 3.95740E+02 6.69197E+00 7.04069E+02 1.08712E+01 1.94036E+01
 -1       794 9.41237E+02 3.19098E+02 3.84202E-01 5.46894E+02 1.20872E+01 1.35527E+01
 -1       795 8.31339E+02 2.79103E+02 3.76160E+00 4.74021E+02 8.88623E+00 1.77562E+01
 -1       796 1.00244E+03 3.28428E+02-1.37922E-01 5.81885E+02 1.30907E+01 1.82483E+01
 -1       797 7.18831E+02 2.34969E+02 1.35945E+00 4.14118E+02 1.30716E+01 2.03735E+01
 -1       798 5.97305E+02 1.98606E+02-2.46572E+00 3.42056E+02 8.65084E+00 1.75789E+01
 -1       799 7.69239E+02 2.61645E+02-1.15513E+00 4.45967E+02 7.89440E+00 1.73541E+01
 -1       800 4.90178E+02 1.61338E+02-6.59529E-02 2.81807E+02 1.02843E+01 1.48765E+01
 -1       801 3.79094E+02 1.21267E+02-5.10538E+00 2.13331E+02 6.04635E+00 1.16682E+01
 -1       802 5.35371E+02 1.79281E+02-7.90338E+00 3.13798E+02 7.63272E+00 1.32086E+01
 -1       803 3.60895E+02 1.16623E+02 4.04897E+00 1.96603E+02 6.68205E+00 1.20223E+01
 -1       804 2.50550E+03 6.78919E+02 9.14808E+00 1.30240E+03-2.05757E+00-1.23143E+01
 -1       805 2.64380E+03 6.92874E+02 6.36595E+00 1.35676E+03-9.04049E+00-1.26661E+01
 -1       806 2.79032E+03 7.20120E+02 1.08737E+01 1.41210E+03-6.54860E+00-1.47789E+01
 -1       807 2.91847E+03 7.41622E+02 9.39209E+00 1.47105E+03-9.59516E+00-8.44175E+00
 -1       808 2.70863E+03 7.11490E+02 8.58248E+00 1.38807E+03-1.67085E+00 3.56472E-01
 -1       809 1.68801E+03 5.12399E+02 2.80352E+00 9.30617E+02-5.83498E+00-1.45044E+01
 -1       810 1.82080E+03 5.43772E+02 1.21585E+00 9.96856E+02-1.13492E+01-1.31340E+01
 -1       811 1.44598E+03 4.53527E+02 1.90436E+00 8.04291E+02-5.55154E+00-1.57469E+01
 -1       812 1.57930E+03 4.84175E+02 6.31965E+00 8.74945E+02-1.24536E+01-1.67933E+01
 -1       813 1.61920E+03 5.10228E+02 5.31711E+00 9.08977E+02 3.95030E+00 3.07789E-01
 -1       814 8.35915E+02 2.83238E+02 3.94980E+00 4.85438E+02 9.34820E+00 9.62755E+00
 -1       815 7.04804E+02 2.48379E+02-1.51418E+00 4.16257E+02 3.99014E+00 1.15133E+01
 -1       816 5.93590E+02 2.10707E+02-5.92026E-01 3.55113E+02 7.96625E+00 9.89267E+00
 -1       817 6.44278E+02 2.29138E+02-4.07613E+00 3.84996E+02-6.43310E-01 5.42223E-01
 -1       818 4.82077E+02 1.71181E+02-2.20166E+00 2.84232E+02 5.35395E+00 1.44854E+01
 -1       819 3.70409E+03 8.09264E+02 1.27309E+01 1.73569E+03-5.26412E+00-1.44275E+01
 -1       820 3.85799E+03 8.15704E+02 1.56773E+01 1.77530E+03-7.71185E+00-1.46482E+01
 -1       821 4.02176E+03 8.35010E+02 1.98891E+01 1.82473E+03-5.47002E+00-1.75206E+01
 -1       822 4.20016E+03 8.42407E+02 2.26650E+01 1.87720E+03-6.90873E+00-1.20874E+01
 -1       823 3.93873E+03 8.29745E+02 1.32386E+01 1.80687E+03 5.71269E-01-2.67950E+00
 -1       824 3.53844E+03 8.03537E+02 1.23027E+01 1.68983E+03 8.53396E+00 1.42446E+01
 -1       825 3.37855E+03 7.89733E+02 1.27616E+01 1.63056E+03 5.80194E+00 1.77157E+01
 -1       826 3.24158E+03 7.74508E+02 1.70074E+01 1.58319E+03 1.08574E+01 1.26941E+01
 -1       827 3.07894E+03 7.56213E+02 1.02060E+01 1.52404E+03 5.19973E+00 1.32186E+01
 -1       828 3.29592E+03 7.86620E+02 1.15698E+00 1.61649E+03 1.04466E-01 6.50899E-01
 -1       829 2.35878E+03 6.51385E+02 3.19206E+00 1.24358E+03 1.16434E+01 1.05301E+01
 -1       830 2.20202E+03 6.25995E+02 2.74025E+00 1.17824E+03 4.61238E+00 7.80650E+00
 -1       831 2.09033E+03 6.27124E+02 8.55258E+00 1.13671E+03 7.31135E+00 9.53162E+00
 -1       832 1.95642E+03 5.87240E+02 1.96533E+00 1.06597E+03 2.58687E+00 1.27093E+01
 -1       833 2.15259E+03 6.14522E+02 2.44926E+00 1.15359E+03-2.05986E+00-9.98178E-01
 -1       834 1.06842E+03 3.46543E+02-5.37624E-01 6.14078E+02 9.83951E+00 1.45926E+01
 -1       835 9.39667E+02 3.12112E+02-1.65152E+00 5.42166E+02 6.80960E+00 1.56190E+01
 -1       836 1.31068E+03 4.31241E+02 5.97142E+00 7.40866E+02 8.41470E+00 8.47351E+00
 -1       837 1.19926E+03 3.80315E+02 7.91698E-01 6.74740E+02 5.56287E+00 1.11184E+01
 -1       838 1.11714E+03 3.69795E+02 6.10993E+00 6.44633E+02-1.16337E+00-5.94479E-01
 -1       839 4.89400E+03 8.17419E+02 2.47781E+01 2.01143E+03 8.41941E+00 1.21498E+01
 -1       840 4.70424E+03 8.26023E+02 2.11289E+01 1.97354E+03 5.15417E+00 1.69658E+01
 -1       841 4.53462E+03 8.26653E+02 1.80943E+01 1.94162E+03 9.63734E+00 1.23630E+01
 -1       842 4.34427E+03 8.27176E+02 1.11910E+01 1.89560E+03 4.98854E+00 1.52943E+01
 -1       843 4.61184E+03 8.33397E+02 2.25692E+01 1.96321E+03 6.24946E-01-1.63060E+00
 -1       844 9.77152E+03 2.22194E+02 6.15571E+01 1.49208E+03-5.87963E+00-1.56841E+01
 -1       845 1.00007E+04 1.90520E+02 6.63125E+01 1.39282E+03-6.84139E+00-1.89152E+01
 -1       846 9.52499E+03 2.50719E+02 5.32371E+01 1.59242E+03-1.22167E+01-2.31829E+01
 -1       847 9.60932E+03 2.30053E+02 6.60321E+01 1.55710E+03-1.24015E+00-1.53662E+00
 -1       848 9.27406E+03 2.89546E+02 5.05889E+01 1.67950E+03-5.71725E+00-1.25274E+01
 -1       849 8.30313E+03 4.26205E+02 3.24779E+01 1.94371E+03-4.66781E+00-9.86350E+00
 -1       850 8.59456E+03 4.02791E+02 5.21160E+01 1.88424E+03-7.23092E+00-1.24437E+01
 -1       851 8.83379E+03 3.73185E+02 5.02086E+01 1.82553E+03-1.45713E+00-1.17456E+01
 -1       852 9.05338E+03 3.34642E+02 5.52543E+01 1.75745E+03-1.16965E+01-1.40430E+01
 -1       853 8.69421E+03 3.78785E+02 5.50159E+01 1.85405E+03 2.06789E+00 1.72819E+00
 -1       854 1.09476E+04 6.95573E+01 1.12963E+02 9.17785E+02 5.71434E+00 9.70707E+00
 -1       855 1.06837E+04 9.97211E+01 7.82190E+01 1.05822E+03 6.29468E+00 2.05177E+01
 -1       856 1.05120E+04 9.65825E+01 7.73752E+01 1.13221E+03-2.23603E+00 1.11436E+00
 -1       857 1.04754E+04 1.22128E+02 6.95014E+01 1.17714E+03 1.04420E+01 2.46787E+01
 -1       858 1.02331E+04 1.49536E+02 6.14840E+01 1.29614E+03 4.05064E+00 1.67142E+01
 -1       859 6.57181E+03 6.77614E+02 2.07593E+01 2.14783E+03-4.74110E+00-1.06986E+01
 -1       860 6.83264E+03 6.55389E+02 3.52961E+01 2.13453E+03-9.51217E+00-1.20202E+01
 -1       861 7.06471E+03 6.30804E+02 3.74252E+01 2.12414E+03-1.85427E+00-9.10293E+00
 -1       862 7.27902E+03 6.01244E+02 3.87877E+01 2.09718E+03-6.76019E+00-1.73371E+01
 -1       863 6.93537E+03 6.46362E+02 4.29458E+01 2.13366E+03 3.18210E+00 1.19430E+00
 -1       864 5.83912E+03 7.68141E+02 2.73506E+01 2.11837E+03-6.81256E+00-1.55357E+01
 -1       865 6.01486E+03 7.52999E+02 2.75117E+01 2.12702E+03-1.03945E+01-1.29273E+01
 -1       866 5.64296E+03 7.75510E+02 2.76574E+01 2.10524E+03-9.50704E+00-1.51190E+01
 -1       867 5.72695E+03 7.72742E+02 3.04827E+01 2.11431E+03-6.07300E-01 7.20356E-01
 -1       868 5.44425E+03 7.97643E+02 2.49014E+01 2.08525E+03-5.56822E+00-1.67992E+01
 -1       869 7.93668E+03 5.13061E+02 5.12581E+01 2.02265E+03-2.29964E+00-1.54791E+01
 -1       870 8.18376E+03 4.82892E+02 5.75540E+01 1.99168E+03-6.99255E+00-8.35227E+00
 -1       871 7.49486E+03 5.75104E+02 4.03670E+01 2.07820E+03-3.29770E+00-1.57929E+01
 -1       872 7.70718E+03 5.41216E+02 4.33074E+01 2.05066E+03-1.06971E+01-1.77429E+01
 -1       873 7.79654E+03 5.16300E+02 3.85683E+01 2.03906E+03 9.91977E-01-2.64041E+00
 -1       874 1.13774E+04 2.23369E+01 3.26534E+02 6.15159E+02 5.12168E+00-6.40990E+01
 -1       875 1.11638E+04 4.95718E+01 1.85643E+02 7.91812E+02-2.28372E+00-1.84094E+00
 -1       876 1.13966E+04-5.24224E+01 5.14985E+02 4.47340E+02-6.52925E-01-8.76879E+01
 -1       877 1.13429E+04-6.02412E+01 5.28183E+02 5.69726E+02-3.02629E+00 4.47508E-03
 -1       878 1.12699E+04-1.12342E+02 6.79522E+02 3.22864E+02-1.62192E+01-3.10234E+02
 -1       879 1.12031E+04-8.63387E+01 9.42145E+02 3.22268E+02-3.09913E+01-1.31935E+02
 -1       880 1.06242E+04 8.14485E+01 6.64591E+01 1.07670E+03-7.37921E+00-1.39198E+01
 -1       881 1.09279E+04 7.04566E+01 1.08887E+02 9.17349E+02-6.97021E+00-4.24925E+00
 -1       882 1.11564E+04 4.30008E+01 1.81541E+02 7.92012E+02 1.25511E+00-7.16552E-01
 -1       883 1.10096E+04 2.93754E+01 1.42495E+02 8.56403E+02 9.13347E-01 1.17920E+00
 -1       884 1.13787E+04 2.00115E+01 3.21076E+02 6.14451E+02-2.81451E+00 6.70853E+01
 -1       885 4.80583E+02 1.68340E+02-3.70782E+00 2.82459E+02-4.72837E+00-1.16333E+01
 -1       886 5.91407E+02 2.10845E+02-2.81098E+00 3.53961E+02-8.00030E+00-1.11865E+01
 -1       887 4.17648E+02 1.39825E+02 2.11176E+00 2.38022E+02-5.19614E+00-7.97110E+00
 -1       888 4.79105E+02 1.66490E+02 1.29529E+01 2.73137E+02 3.69161E-01 4.04302E-01
 -1       889 3.78682E+02 1.25055E+02 7.80073E+00 2.04394E+02-7.41897E+00-8.72157E+00
 -1       890 3.70371E+02 1.15586E+02 1.08115E+01 1.97032E+02-3.35933E+00-5.42068E+00
 -1       891 4.70373E+03 8.40540E+02 1.74780E+01 1.98479E+03-1.05856E+00-1.14097E+01
 -1       892 4.88269E+03 8.39991E+02 2.21518E+01 2.02379E+03-9.60127E+00-1.32018E+01
 -1       893 5.04737E+03 8.12863E+02 1.88673E+01 2.03643E+03-5.26229E+00-8.50895E+00
 -1       894 5.25297E+03 8.04679E+02 2.20956E+01 2.06491E+03-1.22890E+01-1.30665E+01
 -1       895 4.97275E+03 8.17086E+02 1.94100E+01 2.02415E+03 5.76175E-01 1.31551E+00
 -1       896 7.07856E+02 2.48577E+02-2.62140E+00 4.15164E+02-1.69872E+00-1.06585E+01
 -1       897 8.35351E+02 3.04197E+02 7.01903E+00 4.94589E+02-8.19400E+00-7.97144E+00
 -1       898 9.27344E+02 3.12236E+02-4.35924E+00 5.42624E+02-5.92155E+00-1.05613E+01
 -1       899 1.06264E+03 3.48020E+02-4.02653E-01 6.14012E+02-1.08879E+01-1.29661E+01
 -1       900 8.83545E+02 3.06202E+02-8.15426E+00 5.23806E+02-6.29306E-02 8.19227E-01
 -1       901 9.07025E+03 3.35579E+02 5.78578E+01 1.74404E+03 1.29152E+01 1.66569E+01
 -1       902 8.84061E+03 3.69349E+02 5.36375E+01 1.81977E+03 5.17796E+00 1.35585E+01
 -1       903 9.53264E+03 2.52452E+02 5.75318E+01 1.59771E+03 7.29440E+00 2.22102E+01
 -1       904 9.29454E+03 2.93526E+02 5.40702E+01 1.67380E+03 4.15209E+00 2.04520E+01
 -1       905 9.14515E+03 2.99162E+02 4.14542E+01 1.71584E+03-2.12993E+00 2.17604E+00
 -1       906 6.84380E+03 6.56618E+02 3.13409E+01 2.13526E+03 1.26670E+01 1.42875E+01
 -1       907 6.60646E+03 6.81448E+02 2.62370E+01 2.14087E+03 3.80921E+00 6.14775E+00
 -1       908 6.42462E+03 7.19574E+02 3.43895E+01 2.15162E+03 8.75367E+00 1.22874E+01
 -1       909 6.23299E+03 7.39305E+02 2.85052E+01 2.14429E+03 3.85890E+00 1.27326E+01
 -1       910 6.50026E+03 6.95055E+02 3.22030E+01 2.14258E+03-2.46709E+00 4.30013E-01
 -1       911 5.23852E+03 8.08354E+02 1.97350E+01 2.06040E+03 1.05387E+01 1.09849E+01
 -1       912 5.07700E+03 8.16401E+02 2.12916E+01 2.03605E+03 6.65845E+00 1.68805E+01
 -1       913 5.44666E+03 7.95819E+02 2.57792E+01 2.08577E+03 2.99412E+00 1.18153E+01
 -1       914 5.33581E+03 8.03674E+02 2.93461E+01 2.07722E+03-2.88769E+00-5.32082E-01
 -1       915 5.64126E+03 7.77219E+02 2.64198E+01 2.10087E+03 8.49370E+00 1.55249E+01
 -1       916 8.14160E+03 4.77823E+02 4.52850E+01 1.98683E+03 9.24920E+00 1.33882E+01
 -1       917 7.93830E+03 5.16264E+02 4.13955E+01 2.02465E+03 2.84177E+00 1.24806E+01
 -1       918 8.61161E+03 4.01267E+02 4.89684E+01 1.88361E+03 1.09246E+01 1.45975E+01
 -1       919 8.35031E+03 4.35361E+02 4.11355E+01 1.93462E+03 4.61802E+00 5.70362E+00
 -1       920 8.22188E+03 4.50327E+02 4.51689E+01 1.95694E+03-2.29760E+00 2.04894E-01
 -1       921 7.28446E+03 5.97522E+02 4.15641E+01 2.10625E+03 7.36023E+00 1.52918E+01
 -1       922 7.05755E+03 6.35066E+02 3.84047E+01 2.12147E+03 4.86316E+00 1.70820E+01
 -1       923 7.68552E+03 5.46204E+02 4.04558E+01 2.05706E+03 1.23256E+01 1.15729E+01
 -1       924 7.49684E+03 5.74929E+02 4.29782E+01 2.07962E+03 5.31146E+00 1.49185E+01
 -1       925 7.37282E+03 5.84902E+02 4.32346E+01 2.09399E+03 1.75623E+00-5.03502E-01
 -1       926 1.12607E+04-8.18021E+01 9.65810E+02 3.58523E+02-4.50344E+00 1.45950E+02
 -1       927 1.13412E+04-2.21367E+01 7.18405E+02 3.67942E+02 9.94875E+00 2.83815E+02
 -1       928 1.14207E+04-5.81326E+01 5.23673E+02 4.46668E+02 4.51557E+00 9.67864E+01
 -1       929 3.55102E+02 1.14846E+02 7.80443E+00 1.95159E+02 2.26296E+00 3.01492E+00
 -1       930 3.65277E+02 1.22335E+02 6.45409E+00 2.02321E+02 7.79409E+00 1.21879E+01
 -1       931 4.15908E+02 1.40022E+02 2.96772E+00 2.38138E+02 6.18013E+00 8.56576E+00
 -1       932 2.64289E+03 6.93993E+02 8.95875E+00 1.35557E+03 7.74688E+00 1.44762E+01
 -1       933 2.50841E+03 6.75555E+02 7.73422E+00 1.30362E+03 4.50267E+00 1.29434E+01
 -1       934 2.93290E+03 7.39000E+02 9.83411E+00 1.47083E+03 1.02581E+01 1.32016E+01
 -1       935 2.78814E+03 7.21471E+02 8.30399E+00 1.41147E+03 4.54628E+00 1.44194E+01
 -1       936 1.81429E+03 5.46269E+02 4.57604E+00 9.99307E+02 9.91193E+00 1.46025E+01
 -1       937 1.68871E+03 5.13124E+02 8.52448E-01 9.30511E+02 6.89781E+00 1.77529E+01
 -1       938 1.57229E+03 4.87661E+02 5.51020E+00 8.76369E+02 1.03298E+01 1.13110E+01
 -1       939 1.43320E+03 4.55209E+02 5.59778E+00 8.05193E+02 5.50749E+00 1.39301E+01
 -1       940 3.85961E+03 8.14411E+02 1.70210E+01 1.77013E+03 7.74445E+00 1.24805E+01
 -1       941 3.68244E+03 8.06285E+02 9.65979E+00 1.73677E+03 3.03676E+00 9.26832E+00
 -1       942 4.19926E+03 8.27455E+02 1.76750E+01 1.86586E+03 1.05151E+01 1.68415E+01
 -1       943 4.02627E+03 8.28888E+02 1.75955E+01 1.82110E+03 5.34891E+00 1.79224E+01
 -1       944 3.35613E+03 7.86464E+02 6.40284E+00 1.63144E+03-6.18436E+00-1.11748E+01
 -1       945 3.52668E+03 7.95032E+02 6.91562E+00 1.68435E+03-1.38107E+01-1.62174E+01
 -1       946 3.08064E+03 7.66158E+02 9.41846E+00 1.53068E+03-2.90562E+00-1.17527E+01
 -1       947 3.23208E+03 7.95603E+02 1.69561E+01 1.59403E+03-7.77632E+00-7.50267E+00
 -1       948 2.22938E+03 6.25422E+02 3.98753E+00 1.17851E+03-6.90588E+00-1.40172E+01
 -1       949 2.35020E+03 6.51758E+02 4.50179E+00 1.23704E+03-1.03744E+01-1.11260E+01
 -1       950 1.95634E+03 5.71997E+02 5.78454E+00 1.05707E+03-5.65067E+00-1.69817E+01
 -1       951 2.09416E+03 5.97102E+02 7.41587E+00 1.12423E+03-7.06370E+00-1.09511E+01
 -1       952 1.02408E+04 1.63655E+02 7.10100E+01 1.29758E+03-1.63848E+00-2.16476E+01
 -1       953 1.04887E+04 1.25340E+02 7.60442E+01 1.18399E+03-7.33409E+00-2.06427E+01
 -1       954 1.01038E+04 1.62827E+02 5.88548E+01 1.34844E+03 4.59221E+00-4.18810E+00
 -1       955 9.76798E+03 2.27934E+02 5.99987E+01 1.50385E+03 4.99465E+00 1.41418E+01
 -1       956 9.96619E+03 1.97839E+02 6.06886E+01 1.40892E+03 1.38903E+01 1.79554E+01
 -1       957 2.42342E+03 6.70292E+02 1.09667E+01 1.27363E+03 2.80982E+00-6.26070E-01
 -1       958 4.30598E+03 8.27436E+02 7.77669E+00 1.90838E+03-3.14732E+00-8.83789E+00
 -1       959 4.52005E+03 8.33780E+02 2.16931E+01 1.94676E+03-8.04480E+00-1.06318E+01
 -1       960 3.59644E+03 8.09291E+02 2.06890E+01 1.71055E+03-1.82933E+00-1.83191E+00
 -1       961 6.22899E+03 7.36344E+02 3.83971E+01 2.14117E+03-2.18258E+00-1.50568E+01
 -1       962 6.45379E+03 7.20490E+02 4.28766E+01 2.15576E+03-6.83765E+00-7.34595E+00
 -1       963 6.10814E+03 7.35647E+02 2.58957E+01 2.13806E+03 1.05651E+00-2.57002E+00
 -1       964 6.01153E+03 7.51797E+02 2.78878E+01 2.13247E+03 1.13512E+01 1.01560E+01
 -1       965 5.83784E+03 7.69385E+02 3.17164E+01 2.11651E+03 5.17008E+00 1.62729E+01
 -1       966 1.87633E+03 5.66636E+02 5.75210E+00 1.03081E+03-2.19446E+00 7.81894E-01
 -1       967 1.19590E+03 3.83254E+02 1.62843E+00 6.74744E+02-6.44284E+00-1.24550E+01
 -1       968 1.31281E+03 4.18962E+02 3.26006E+00 7.35934E+02-9.73311E+00-1.09170E+01
 -1       969 1.37558E+03 4.40949E+02-2.78414E+00 7.78560E+02 2.44969E-01 1.95130E-01
 -1       970 4.24004E+03 8.34945E+02 2.40112E+01 1.88616E+03-1.14832E+00 3.56508E-01
 -1       971 2.99150E+03 7.47390E+02 6.85633E+00 1.50028E+03-3.59904E-01-4.28657E-01
 -1       972-2.46734E+03-6.27086E+02 5.60846E+00-1.24367E+03 1.11016E+01 1.76424E+01
 -1       973-1.46067E+03-4.14017E+02 1.95384E+00-7.78852E+02 6.37178E+00 1.05227E+01
 -1       974-5.12000E+02-1.53423E+02 2.15421E+00-2.81987E+02-9.16600E+00-1.77722E+01
 -1       975-3.56011E+03-7.30351E+02 9.09966E+00-1.60457E+03 1.11056E+01 1.68354E+01
 -1       976-3.01503E+03-6.92214E+02 9.74716E+00-1.44718E+03 1.10225E+01 1.71070E+01
 -1       977-1.95180E+03-5.28426E+02-1.93889E+00-1.00656E+03 4.02998E+00 1.17842E+01
 -1       978-9.79777E+02-2.90844E+02 2.48271E+00-5.41402E+02-1.13869E+01-1.86369E+01
 -1       979-4.17730E+03-7.36047E+02 1.12844E+01-1.74710E+03-1.08660E+01-1.86317E+01
 -1       980-8.40253E+03-2.19957E+02 3.92333E+01-1.32096E+03 1.44253E+01 2.13705E+01
 -1       981-7.65654E+03-3.37197E+02 3.59149E+01-1.59416E+03 1.27922E+01 1.77952E+01
 -1       982-9.14696E+03-1.09779E+02 5.45299E+01-9.36193E+02-1.48453E+01-2.86668E+01
 -1       983-6.18779E+03-5.66653E+02 2.52957E+01-1.86804E+03 1.23983E+01 1.72229E+01
 -1       984-5.16837E+03-6.83257E+02 1.81536E+01-1.86774E+03 1.00414E+01 1.21780E+01
 -1       985-6.89473E+03-4.74747E+02 2.86124E+01-1.77729E+03 1.34208E+01 1.79953E+01
 -1       986-9.88011E+03-3.85410E+01-1.05915E+02-4.59576E+02 1.38663E+01 6.15772E+01
 -1       987-9.51508E+03-6.26783E+01 3.15328E+01-6.99519E+02 1.30199E+01 3.16771E+01
 -1       988-2.79348E+02-8.63137E+01 3.56227E+00-1.56888E+02 7.52504E+00 1.36172E+01
 -1       989-2.19598E+03-5.82707E+02 2.50569E+00-1.12843E+03-1.09192E+01-1.57917E+01
 -1       990-4.48808E+03-7.25804E+02 1.61115E+01-1.80758E+03 1.05412E+01 1.85951E+01
 -1       991-7.35984E+02-2.23088E+02-1.82207E+00-4.05558E+02 9.79185E+00 1.77384E+01
 -1       992-3.29837E+03-7.10928E+02 1.12373E+01-1.53764E+03-1.04797E+01-1.80342E+01
 -1       993-1.70489E+03-4.79987E+02 2.94127E+00-9.07148E+02-1.03757E+01-1.73623E+01
 -1       994-2.72665E+03-6.57949E+02 8.09273E+00-1.33823E+03-9.46529E+00-1.66567E+01
 -1       995-8.03680E+03-3.00079E+02 2.94522E+01-1.46737E+03-1.14350E+01-9.16168E+00
 -1       996-5.86132E+03-6.07866E+02 2.93513E+01-1.88294E+03-1.29243E+01-9.61732E+00
 -1       997-4.81960E+03-7.06674E+02 1.72733E+01-1.84490E+03-1.12238E+01-1.66748E+01
 -1       998-7.31209E+03-3.97060E+02 3.98506E+01-1.68728E+03-1.52478E+01-8.62878E+00
 -1       999-6.51953E+03-5.32764E+02 2.46473E+01-1.83434E+03-1.27386E+01-2.09001E+01
 -1      1000-1.00461E+04 8.38411E+02-1.09106E+03-2.27937E+02-3.96835E+01-2.33069E+02
 -1      1001-1.37632E+02-8.91161E+01-1.98344E+01-5.81787E+01-5.26221E+00-6.66351E+00
 -1      1002-9.50252E+03-7.77608E+01 2.95897E+01-7.06812E+02-1.04117E+01-3.78636E+01
 -1      1003-9.13294E+03-1.17203E+02 4.82870E+01-9.35644E+02 1.14819E+01 2.94369E+01
 -1      1004-8.76948E+03-1.66143E+02 4.43610E+01-1.14553E+03 1.46177E+01 2.19009E+01
 -1      1005-8.60956E+03-1.91958E+02 7.04831E+01-1.23099E+03-6.28805E-01-4.77945E-01
 -1      1006-5.04303E+02-1.52300E+02 3.40431E+00-2.76819E+02 9.76080E+00 1.79363E+01
 -1      1007-2.21009E+03-5.79744E+02 5.66546E+00-1.13533E+03 1.03627E+01 1.71023E+01
 -1      1008-1.45518E+03-4.20776E+02 1.62836E+00-7.83373E+02-9.17374E+00-1.80327E+01
 -1      1009-3.57567E+03-7.25068E+02 9.21422E+00-1.60585E+03-1.09770E+01-1.75459E+01
 -1      1010-4.50205E+03-7.27254E+02 9.87587E+00-1.78806E+03-4.84733E+00-9.74656E+00
 -1      1011-4.18020E+03-7.33550E+02 1.29830E+01-1.75042E+03 1.10689E+01 1.73207E+01
 -1      1012-3.28271E+03-7.11035E+02 1.00427E+01-1.52789E+03 1.13105E+01 1.89084E+01
 -1      1013-3.88171E+03-7.26317E+02 1.47090E+01-1.67967E+03-1.16539E+01-9.50503E+00
 -1      1014-7.28890E+03-4.21754E+02 2.28211E+01-1.69177E+03 1.02607E+01 1.08478E+01
 -1      1015-5.84315E+03-6.22825E+02 1.60385E+01-1.87334E+03 7.01582E+00 9.98797E+00
 -1      1016-5.49509E+03-6.53715E+02 2.05622E+01-1.88636E+03 1.11633E+01 1.99132E+01
 -1      1017-5.34128E+03-6.68890E+02 2.66705E+01-1.87684E+03 7.80225E-01 2.95987E+00
 -1      1018-6.19277E+03-5.60582E+02 2.51622E+01-1.86346E+03-1.28827E+01-1.56708E+01
 -1      1019-2.99191E+03-6.93718E+02 4.85023E+00-1.43382E+03-1.10460E+01-1.74133E+01
 -1      1020-1.69776E+03-4.75140E+02 3.68280E+00-8.97624E+02 1.08650E+01 1.79808E+01
 -1      1021-4.80628E+03-7.18078E+02 1.32403E+01-1.84461E+03 1.18653E+01 1.73719E+01
 -1      1022-7.47105E+02-2.24643E+02 3.30723E+00-4.12320E+02-1.03209E+01-1.64823E+01
 -1      1023-9.74792E+02-2.93956E+02 2.47158E+00-5.38620E+02 1.09833E+01 1.87092E+01
 -1      1024-6.89840E+03-4.66365E+02 3.15555E+01-1.77526E+03-1.18464E+01-1.86601E+01
 -1      1025-7.64112E+03-3.49053E+02 3.34705E+01-1.59392E+03-1.30468E+01-1.97962E+01
 -1      1026-1.21517E+03-3.53894E+02 2.94148E+00-6.53546E+02 8.96259E+00 1.67055E+01
 -1      1027-2.45695E+03-6.27620E+02 5.89143E+00-1.24166E+03-1.10819E+01-1.91886E+01
 -1      1028-8.04343E+03-2.76923E+02 3.78557E+01-1.47141E+03 1.42969E+01 1.74990E+01
 -1      1029-3.85939E+03-7.40842E+02 8.65443E+00-1.68209E+03 1.07564E+01 1.70767E+01
 -1      1030-6.53911E+03-5.17421E+02 2.93844E+01-1.83681E+03 1.14222E+01 2.01838E+01
 -1      1031-1.19953E+03-3.60724E+02 1.49410E+00-6.52606E+02-1.06726E+01-1.68486E+01
 -1      1032-2.73345E+03-6.61261E+02 5.57516E+00-1.34458E+03 1.06878E+01 1.77087E+01
 -1      1033-1.95005E+03-5.34031E+02 5.29024E+00-1.02675E+03-1.05113E+01-1.86758E+01
 -1      1034-9.81231E+03-3.45695E+01-7.91977E+01-5.78094E+02 4.49072E-01-2.72795E+00
 -1      1035-9.38074E+03-1.06544E+02 6.13139E+01-8.19134E+02-3.42449E+00 1.95438E+00
 -1      1036-8.40140E+03-2.14378E+02 4.13329E+01-1.32504E+03-1.32071E+01-2.09249E+01
 -1      1037-1.00159E+04 1.07531E+03-9.09545E+02-3.52175E+02 1.38975E+01 2.83513E+02
 -1      1038-5.46649E+03-6.61998E+02 1.91257E+01-1.88259E+03-1.03617E+01-1.90604E+01
 -1      1039-4.99298E+03-6.96349E+02 2.69658E+01-1.85163E+03-2.36446E-01-2.66892E-01
 -1      1040-4.20204E+02-1.14192E+02 3.55889E+00-2.19494E+02-1.10098E+00-1.02201E+00
 -1      1041-8.75217E+03-1.71332E+02 4.58317E+01-1.14533E+03-1.33522E+01-2.22868E+01
 -1      1042-6.52670E+02-1.73630E+02 4.21935E+00-3.45288E+02-8.52078E-01-2.87996E+00
 -1      1043-8.21609E+03-2.50204E+02 6.62715E+01-1.39366E+03 3.75478E+00 1.37015E+00
 -1      1044-1.59095E+03-4.38241E+02 5.10262E+00-8.33888E+02 2.47175E+00 2.92565E+00
 -1      1045-1.35462E+03-3.79534E+02 3.07104E+00-7.20839E+02 1.21437E-01 3.48454E+00
 -1      1046-2.07957E+03-5.51906E+02 7.77978E+00-1.07215E+03-1.55822E+00-9.27967E-01
 -1      1047-8.65952E+02-2.44249E+02 2.84811E+00-4.58022E+02-2.49863E+00 5.00117E-01
 -1      1048-3.14600E+03-6.98509E+02 1.42807E+01-1.47682E+03 3.43558E+00 1.78093E+00
 -1      1049-4.02445E+03-7.31077E+02 2.11485E+01-1.70360E+03-1.26035E+00-3.35343E+00
 -1      1050-2.88944E+03-6.64417E+02 1.13425E+01-1.38543E+03-2.76071E-01-2.64050E-01
 -1      1051-2.60074E+03-6.38554E+02 9.99182E+00-1.28600E+03 4.52895E-01-7.13339E-01
 -1      1052-1.10465E+03-3.17376E+02 4.42240E+00-5.96523E+02 1.57704E+00 1.28352E+00
 -1      1053-1.84849E+03-4.97076E+02 4.80361E+00-9.60355E+02 2.29972E+00 2.43369E+00
 -1      1054-4.65681E+03-7.15216E+02 2.65174E+01-1.81846E+03 1.43314E+00 1.52202E+00
 -1      1055-7.88833E+03-3.08818E+02 5.38526E+01-1.52637E+03-1.03658E+00-3.17824E+00
 -1      1056-7.47678E+03-3.81420E+02 5.28003E+01-1.64558E+03-1.66831E+00-2.27605E+00
 -1      1057-3.75156E+03-7.21235E+02 1.63431E+01-1.64683E+03-1.65799E+00-2.45342E+00
 -1      1058-6.73988E+03-4.90655E+02 4.70031E+01-1.80083E+03-5.63045E-01-7.50970E-01
 -1      1059-6.37314E+03-5.46020E+02 4.12282E+01-1.85140E+03 2.00492E-01 5.27246E-01
 -1      1060-7.14546E+03-4.30458E+02 4.50088E+01-1.73129E+03 9.29263E-02 1.35729E+00
 -1      1061-3.43557E+03-7.18996E+02 1.64890E+01-1.56621E+03-2.60345E+00 2.31186E-01
 -1      1062-2.33570E+03-5.99331E+02 7.85367E+00-1.18309E+03 7.51581E-01 6.71631E-01
 -1      1063-6.01216E+03-5.96643E+02 3.79334E+01-1.87323E+03-2.12600E+00-1.07851E+00
 -1      1064-4.36576E+03-7.23857E+02 2.06764E+01-1.77344E+03-2.57434E+00-2.36334E+00
 -1      1065-5.70033E+03-6.29210E+02 3.07791E+01-1.88560E+03 1.00505E+00 2.25686E+00
 -1      1066-5.14879E+03-6.87953E+02 1.87125E+01-1.88183E+03-1.29620E+01-2.01648E+01
 -1      1067-9.02156E+03-1.31161E+02 7.18605E+01-1.02305E+03 3.51933E+00-3.02745E+00
 -1      1068-1.39361E+02-1.12215E+02-2.42837E+01-6.17668E+01 6.34283E+00 9.93084E+00
 -1      1069-9.87555E+03-4.08584E+01-1.09577E+02-4.55705E+02-1.36648E+01-5.63691E+01
 -1      1070-2.75649E+02-8.61795E+01 2.04801E+00-1.54444E+02-8.08773E+00-1.45982E+01
 -1      1071-9.96765E+03 2.84187E+01-5.64926E+02-4.26705E+02-4.95978E-01-8.02477E+00
 -1      1072-9.99134E+03 6.34448E+02-3.50364E+02-3.28359E+02 4.56505E+01 6.05741E+02
 -1      1073-1.01231E+04 7.02137E+02-4.77304E+02-2.26523E+02-2.63132E+01-6.64976E+02
 -1      1074-1.29345E+02-7.78822E+01-1.42176E+01-6.64050E+01 1.06943E+01 1.43473E+01
 -1      1075-1.18277E+02-8.54020E+01-1.76033E+01-5.60491E+01-6.63277E+00-1.46129E+01
 -1      1076-2.54194E+02-7.15147E+01 1.49688E+00-1.31179E+02 2.67245E-01-1.64187E+00
 -1      1077-1.09267E+04-1.04973E+03-1.83273E+03 4.11820E+02-2.73336E+02 1.42238E+03
 -1      1078-1.02631E+04-8.76687E+02-2.25746E+03 7.80116E+02 4.19805E+01 8.87413E+02
 -1      1079-9.35489E+03 1.97452E+02 8.65677E+01-4.42629E+02 1.06937E+02 2.04700E+02
 -1      1080-1.05883E+04-1.32648E+03-2.59571E+03 8.92008E+02 7.27764E+01-9.78738E+02
 -1      1081-1.10053E+04-1.07857E+03-1.89532E+03 4.65644E+02 2.35208E+02-1.40388E+03
 -1      1082-9.34877E+03 1.95662E+02 8.74169E+01-4.44723E+02-8.50685E+01-2.17135E+02
 -1      1083-9.37622E+01-3.05428E+01-2.24700E+01-2.29345E+01-6.17562E+00-1.38475E+01
 -1      1084-7.07586E+01-3.76676E+00-1.23434E+01-2.49127E+01 8.53454E-02-1.50862E+01
 -1      1085-1.48399E+02-6.59401E+01-3.05871E+00-9.26696E+01-1.85009E+00-7.76407E+00
 -1      1086-8.04300E+01-4.14115E-01-1.13151E+01-3.04090E+01 1.50973E+00 1.47430E+01
 -1      1087-9.32782E+01-1.41112E+01-1.64194E+01-3.17097E+01 9.62356E+00 1.65394E+01
 -1      1088-1.57120E+02-7.70137E+01-5.07071E+00-9.48573E+01 7.08586E+00 7.99981E+00
 -1      1089-1.07902E+04-1.50208E+03-2.97822E+03 9.35087E+02 3.96351E+01-1.82711E+02
 -1      1090-1.04567E+04-9.50719E+02-2.63621E+03 7.54795E+02-7.42821E+01-5.93448E+02
 -1      1091-9.93806E+03 9.77241E+02-8.16172E+02-3.06393E+02-6.03921E+01-4.76854E+02
 -1      1092-1.06960E+04-1.31288E+03-2.80626E+03 8.44650E+02 1.13248E+02 5.89494E+02
 -1      1093-1.06390E+04-1.13582E+03-2.69639E+03 8.07373E+02 3.08163E+01 1.57548E+02
 -1      1094-9.99943E+03 8.47642E+02-1.13481E+03-2.97987E+02-1.85096E+01 1.18389E+01
 -1      1095-9.97300E+03 9.33861E+02-7.74699E+02-3.65062E+02 3.47095E+01 5.10889E+02
 -1      1096-9.85574E+01-3.06033E+01-2.10216E+01-2.13744E+01 4.59837E+00 7.46284E+00
 -1      1097-8.80819E+01-2.17200E+01-1.13209E+01-2.77713E+01 2.85782E+00 4.67272E+00
 -1      1098-1.34285E+02-8.95686E+01-2.08602E+01-6.03288E+01 4.44335E+00 1.18198E+01
 -1      1099-1.00965E+02-2.39118E+01-1.26418E+01-2.46479E+01-2.46446E+00-3.45258E+00
 -1      1100-9.28984E+01-2.91416E+01-2.30861E+01-3.25409E+01-5.81126E+00-9.56860E+00
 -1      1101-1.35721E+02-9.12709E+01-1.52446E+01-6.03618E+01 1.59199E+00 4.92902E+00
 -1      1102-1.30843E+02-8.92822E+01-2.25048E+01-5.65163E+01-9.95477E+00-1.47531E+01
 -1      1103-9.73019E+03-1.32174E+02-2.05590E+02-3.93276E+02 7.45291E+01-1.10219E+02
 -1      1104-9.65220E+03-6.35524E+01-2.25607E+01-5.07408E+02-1.36231E+01-9.72323E+00
 -1      1105-9.82517E+03 3.04237E+01-2.67657E+02-3.63476E+02 8.03132E+00-3.08406E+02
 -1      1106-9.48341E+03-6.19207E+01 4.96134E+00-6.36500E+02 1.84552E+01 1.76110E+01
 -1      1107-9.36788E+03-6.94635E+01 2.04500E+01-7.51307E+02 1.44841E+01 2.61971E+01
 -1      1108-9.68795E+03-5.17308E+01-2.43259E+01-5.81785E+02-8.52355E+00 2.46671E+00
 -1      1109-9.17981E+03-1.01130E+02 2.71298E+01-8.68300E+02 8.67006E+00 2.30075E+01
 -1      1110-8.99853E+03-1.30842E+02 2.30918E+01-9.86640E+02 1.03129E+01 2.03550E+01
 -1      1111-9.30298E+03-8.00533E+01 4.97675E+01-8.11448E+02 1.58480E+01 3.43032E+01
 -1      1112-8.82677E+03-1.41546E+02 2.16050E+01-1.09048E+03 6.24332E+00 2.21309E+01
 -1      1113-8.62883E+03-1.78207E+02 2.52947E+01-1.18741E+03 1.15045E+01 1.70103E+01
 -1      1114-8.94610E+03-1.43859E+02 4.76775E+01-1.04107E+03 1.77926E+01 2.55863E+01
 -1      1115-8.46487E+03-1.99672E+02 1.70202E+01-1.27581E+03 7.33152E+00 1.97722E+01
 -1      1116-8.26718E+03-2.36842E+02 2.01158E+01-1.36023E+03 1.16484E+01 1.83330E+01
 -1      1117-8.57182E+03-1.92556E+02 4.74019E+01-1.23597E+03 1.63568E+01 1.83184E+01
 -1      1118-8.09826E+03-2.60151E+02 1.85802E+01-1.43245E+03 7.39992E+00 1.66386E+01
 -1      1119-7.91488E+03-2.92162E+02 2.03754E+01-1.49843E+03 1.34768E+01 1.12069E+01
 -1      1120-8.20392E+03-2.41198E+02 4.71857E+01-1.39805E+03 1.30509E+01 1.76397E+01
 -1      1121-7.72767E+03-3.19646E+02 1.88571E+01-1.55438E+03 5.24594E+00 1.16524E+01
 -1      1122-7.54293E+03-3.50929E+02 1.85353E+01-1.61176E+03 1.23563E+01 1.08104E+01
 -1      1123-7.81669E+03-3.01558E+02 4.49272E+01-1.53268E+03 1.36859E+01 1.92469E+01
 -1      1124-7.35081E+03-3.89097E+02 1.71621E+01-1.65584E+03 4.98364E+00 1.30984E+01
 -1      1125-7.15997E+03-4.29086E+02 1.32529E+01-1.71873E+03 1.00439E+01 2.08342E+01
 -1      1126-7.43743E+03-3.64503E+02 4.42276E+01-1.63256E+03 1.23304E+01 1.89196E+01
 -1      1127-6.97871E+03-4.51734E+02 1.38276E+01-1.75626E+03 6.97425E+00 1.92908E+01
 -1      1128-6.78737E+03-4.82999E+02 1.62271E+01-1.79027E+03 1.11529E+01 1.90996E+01
 -1      1129-7.10734E+03-4.52502E+02 1.82837E+01-1.73847E+03 1.28567E+01 1.70921E+01
 -1      1130-6.60991E+03-5.01500E+02 1.46518E+01-1.81572E+03 7.60982E+00 1.63596E+01
 -1      1131-6.44737E+03-5.25085E+02 1.31273E+01-1.83502E+03 9.67021E+00 1.46886E+01
 -1      1132-6.71856E+03-5.00808E+02 2.55727E+01-1.81174E+03 1.18763E+01 1.90523E+01
 -1      1133-6.26219E+03-5.49968E+02 1.41988E+01-1.84914E+03 4.98305E+00 1.22243E+01
 -1      1134-6.08592E+03-5.74363E+02 1.30366E+01-1.86362E+03 1.21806E+01 1.15882E+01
 -1      1135-6.35141E+03-5.33549E+02 3.18106E+01-1.84771E+03 1.19257E+01 2.04851E+01
 -1      1136-5.90374E+03-5.97261E+02 1.55245E+01-1.86403E+03 4.99436E+00 1.53299E+01
 -1      1137-5.73216E+03-6.33376E+02 4.98645E+00-1.88074E+03 9.27962E+00 1.92123E+01
 -1      1138-5.98188E+03-5.81153E+02 3.24268E+01-1.86134E+03 1.11125E+01 1.90664E+01
 -1      1139-5.56017E+03-6.41055E+02 8.43580E+00-1.88698E+03 8.11406E+00 2.19194E+01
 -1      1140-5.37833E+03-6.66138E+02 1.13740E+01-1.88138E+03 1.16057E+01 1.83699E+01
 -1      1141-5.67220E+03-6.41014E+02 1.91318E+01-1.88170E+03 1.19014E+01 1.84947E+01
 -1      1142-5.22131E+03-6.77556E+02 9.68620E+00-1.87763E+03 7.61398E+00 2.06153E+01
 -1      1143-5.03939E+03-6.94642E+02 1.25503E+01-1.86179E+03 1.19892E+01 1.67224E+01
 -1      1144-5.30290E+03-6.55928E+02 3.12815E+01-1.87644E+03 9.84244E+00 1.47157E+01
 -1      1145-4.88586E+03-7.05884E+02 4.10453E+00-1.85424E+03 6.78463E+00 2.04784E+01
 -1      1146-4.70916E+03-7.19583E+02 1.03184E+01-1.83267E+03 1.12612E+01 1.69572E+01
 -1      1147-4.98617E+03-7.08986E+02 1.64505E+01-1.85836E+03 1.44971E+01 1.54120E+01
 -1      1148-4.55468E+03-7.18852E+02 9.27823E+00-1.81116E+03 7.84130E+00 1.63090E+01
 -1      1149-4.41346E+03-7.20533E+02 6.94460E+00-1.78483E+03 9.52867E+00 1.38747E+01
 -1      1150-4.64299E+03-7.27129E+02 1.22524E+01-1.82783E+03 1.07420E+01 1.76601E+01
 -1      1151-4.25147E+03-7.24776E+02 7.90054E+00-1.75423E+03 4.91952E+00 1.31402E+01
 -1      1152-4.09976E+03-7.27814E+02 7.30102E+00-1.72648E+03 1.04823E+01 1.18265E+01
 -1      1153-4.32626E+03-7.20313E+02 1.78811E+01-1.77445E+03 1.05861E+01 1.94498E+01
 -1      1154-3.94584E+03-7.32433E+02 4.77439E+00-1.69175E+03 4.17204E+00 1.38136E+01
 -1      1155-3.77960E+03-7.38639E+02 6.05605E+00-1.66289E+03 1.09664E+01 1.64069E+01
 -1      1156-4.01671E+03-7.30022E+02 1.51336E+01-1.71179E+03 1.11376E+01 2.00580E+01
 -1      1157-3.63814E+03-7.33134E+02 4.76767E+00-1.63091E+03 7.60760E+00 1.80979E+01
 -1      1158-3.48627E+03-7.27535E+02 8.33509E+00-1.58700E+03 1.13217E+01 1.72016E+01
 -1      1159-3.72179E+03-7.44020E+02 3.17267E+00-1.64849E+03 1.12829E+01 1.54985E+01
 -1      1160-3.34693E+03-7.15052E+02 5.49918E+00-1.54827E+03 9.13125E+00 1.81655E+01
 -1      1161-3.20743E+03-7.08830E+02 3.37174E+00-1.50395E+03 1.11545E+01 1.83913E+01
 -1      1162-3.42534E+03-7.24530E+02 3.25715E+00-1.56672E+03 1.11243E+01 1.73812E+01
 -1      1163-3.07228E+03-6.95789E+02 4.25924E+00-1.46442E+03 8.00717E+00 1.77051E+01
 -1      1164-2.93642E+03-6.77654E+02 5.80288E+00-1.41243E+03 1.14641E+01 1.21563E+01
 -1      1165-3.14611E+03-6.97078E+02 1.39510E+01-1.48627E+03 1.03237E+01 1.79205E+01
 -1      1166-2.79962E+03-6.60512E+02 4.21338E+00-1.36060E+03 5.86054E+00 1.43432E+01
 -1      1167-2.66857E+03-6.45585E+02 3.15147E+00-1.31339E+03 1.02974E+01 1.28739E+01
 -1      1168-2.85899E+03-6.70013E+02 1.11762E+01-1.38992E+03 1.14453E+01 1.86435E+01
 -1      1169-2.53476E+03-6.27180E+02 4.53119E+00-1.26069E+03 5.85103E+00 1.47529E+01
 -1      1170-2.40477E+03-6.09991E+02 1.91428E+00-1.21081E+03 1.06271E+01 1.29143E+01
 -1      1171-2.59367E+03-6.37650E+02 8.93933E+00-1.29037E+03 1.12250E+01 2.00746E+01
 -1      1172-2.27126E+03-5.83844E+02 4.39881E+00-1.15465E+03 5.96407E+00 1.43981E+01
 -1      1173-2.14462E+03-5.58714E+02 3.35485E+00-1.09851E+03 1.11648E+01 1.27401E+01
 -1      1174-2.32980E+03-5.98758E+02 8.25449E+00-1.18631E+03 1.18175E+01 1.96077E+01
 -1      1175-2.01228E+03-5.33616E+02 2.57321E+00-1.03468E+03 4.34711E+00 1.61186E+01
 -1      1176-1.88246E+03-5.24985E+02-2.92942E-01-9.88607E+02 1.13882E+01 1.96290E+01
 -1      1177-2.06806E+03-5.40326E+02 9.00018E+00-1.06412E+03 7.68156E+00 1.84175E+01
 -1      1178-1.76091E+03-4.94435E+02 2.16733E-01-9.35485E+02 8.74725E+00 1.89683E+01
 -1      1179-1.63192E+03-4.67493E+02 4.20781E+00-8.70262E+02 1.35450E+01 1.97904E+01
 -1      1180-1.84210E+03-5.12433E+02-7.20258E+00-9.61501E+02 8.62984E+00 1.46250E+01
 -1      1181-1.51423E+03-4.36851E+02 1.46901E+00-8.15802E+02 9.34622E+00 1.97023E+01
 -1      1182-1.38809E+03-4.08819E+02 2.53165E+00-7.51622E+02 1.47288E+01 2.08967E+01
 -1      1183-1.57487E+03-4.39576E+02 3.95414E+00-8.37690E+02 8.17417E+00 1.65407E+01
 -1      1184-1.27620E+03-3.72206E+02 3.28057E+00-6.94886E+02 7.63198E+00 2.04624E+01
 -1      1185-1.15537E+03-3.41664E+02 1.58895E+00-6.26881E+02 9.56977E+00 1.65157E+01
 -1      1186-1.35076E+03-3.95887E+02-7.70480E+00-7.22957E+02 8.85572E+00 1.74380E+01
 -1      1187-1.03439E+03-3.12384E+02-1.59203E+00-5.73451E+02 9.17606E+00 1.96460E+01
 -1      1188-9.10033E+02-2.79498E+02 4.54858E+00-5.03672E+02 1.26050E+01 1.80952E+01
 -1      1189-1.10458E+03-3.30453E+02 1.98724E+00-5.97930E+02 1.22976E+01 1.63168E+01
 -1      1190-8.01366E+02-2.43223E+02-1.46529E+00-4.44139E+02 7.60721E+00 1.78364E+01
 -1      1191-6.75775E+02-2.07425E+02 1.56800E+00-3.73617E+02 1.27914E+01 1.84386E+01
 -1      1192-8.57088E+02-2.56145E+02-1.15301E+00-4.71389E+02 5.59903E+00 1.72818E+01
 -1      1193-5.67199E+02-1.71061E+02 3.36901E-01-3.15094E+02 8.02295E+00 1.80390E+01
 -1      1194-4.47263E+02-1.37362E+02 3.46883E+00-2.46111E+02 1.16087E+01 1.77752E+01
 -1      1195-6.30573E+02-1.92804E+02-6.38485E+00-3.44783E+02 9.60838E+00 1.54142E+01
 -1      1196-3.37915E+02-9.80903E+01 2.23891E+00-1.87107E+02 6.64852E+00 1.43575E+01
 -1      1197-2.21154E+02-6.99778E+01 4.51389E+00-1.27546E+02 7.47539E+00 1.20567E+01
 -1      1198-3.92878E+02-1.15781E+02 3.58646E+00-2.16430E+02 6.11986E+00 1.61111E+01
 -1      1199-2.00844E+02-7.03793E+01-7.63844E+00-1.13837E+02 5.66552E+00 1.13274E+01
 -1      1200-9.65074E+03-6.12511E+01-1.88715E+01-5.09925E+02 1.28061E+01 1.07307E+01
 -1      1201-9.72936E+03-1.33772E+02-2.09298E+02-3.94659E+02-7.76616E+01 1.11019E+02
 -1      1202-9.85171E+03 1.38637E+01-2.79059E+02-3.48650E+02 6.94914E-01 2.92745E+02
 -1      1203-9.34854E+03-8.81327E+01 2.16658E+01-7.64988E+02-1.00404E+01-3.28219E+01
 -1      1204-9.48780E+03-7.12666E+01-1.87431E+00-6.40543E+02-1.72109E+01-1.78339E+01
 -1      1205-9.69318E+03-5.81964E+01-3.09732E+01-5.81458E+02 8.07159E+00 1.48121E+00
 -1      1206-9.01667E+03-1.22232E+02 2.74990E+01-9.81740E+02-1.51846E+01-1.79011E+01
 -1      1207-9.16134E+03-9.13153E+01 3.26745E+01-8.75573E+02-1.02490E+01-2.23095E+01
 -1      1208-9.31672E+03-9.21707E+01 4.03386E+01-8.19964E+02-1.02429E+01-3.42783E+01
 -1      1209-8.63381E+03-1.79798E+02 2.20027E+01-1.18407E+03-8.85707E+00-1.61310E+01
 -1      1210-8.83190E+03-1.51191E+02 2.23553E+01-1.08129E+03-6.99493E+00-1.71827E+01
 -1      1211-8.94378E+03-1.41387E+02 5.22206E+01-1.03493E+03-2.02938E+01-2.52436E+01
 -1      1212-8.28239E+03-2.24591E+02 2.39587E+01-1.35104E+03-1.13629E+01-1.21215E+01
 -1      1213-8.46102E+03-1.97249E+02 1.86291E+01-1.27667E+03-6.89996E+00-1.68373E+01
 -1      1214-8.57367E+03-1.98002E+02 4.43244E+01-1.23887E+03-1.40338E+01-2.07955E+01
 -1      1215-7.90179E+03-3.06108E+02 1.56698E+01-1.50680E+03-9.90206E+00-2.01965E+01
 -1      1216-8.09425E+03-2.67734E+02 1.91377E+01-1.41742E+03-4.59558E+00-1.17152E+01
 -1      1217-8.17663E+03-2.39473E+02 4.96142E+01-1.38391E+03-1.06270E+01-1.87799E+01
 -1      1218-7.52704E+03-3.66173E+02 1.80453E+01-1.62294E+03-1.19020E+01-2.20240E+01
 -1      1219-7.71581E+03-3.27925E+02 1.50360E+01-1.56560E+03-7.71115E+00-1.80872E+01
 -1      1220-7.84989E+03-3.26277E+02 2.51150E+01-1.53403E+03-1.29570E+01-1.42398E+01
 -1      1221-7.18969E+03-4.18380E+02 1.55891E+01-1.70435E+03-1.37465E+01-1.45311E+01
 -1      1222-7.33880E+03-3.80918E+02 2.57176E+01-1.66605E+03-9.12581E+00-1.80983E+01
 -1      1223-7.45139E+03-3.67406E+02 3.92903E+01-1.63662E+03-1.17054E+01-1.90119E+01
 -1      1224-6.80277E+03-4.77458E+02 1.43175E+01-1.78286E+03-9.85860E+00-1.20170E+01
 -1      1225-6.98930E+03-4.48280E+02 1.57516E+01-1.74432E+03-5.09658E+00-1.54726E+01
 -1      1226-7.10862E+03-4.40157E+02 3.16396E+01-1.72756E+03-1.61398E+01-1.80512E+01
 -1      1227-6.42844E+03-5.42841E+02 1.10457E+01-1.84370E+03-9.69644E+00-1.81985E+01
 -1      1228-6.61404E+03-5.09554E+02 1.06975E+01-1.80771E+03-6.35990E+00-1.35196E+01
 -1      1229-6.71333E+03-4.98609E+02 3.16322E+01-1.79882E+03-1.41914E+01-1.92134E+01
 -1      1230-6.06849E+03-5.85429E+02 1.07353E+01-1.86717E+03-1.42835E+01-1.81872E+01
 -1      1231-6.25240E+03-5.53927E+02 1.36086E+01-1.85380E+03-8.93690E+00-1.54759E+01
 -1      1232-6.34580E+03-5.37755E+02 2.70842E+01-1.85058E+03-1.04801E+01-2.08987E+01
 -1      1233-5.75026E+03-6.21009E+02 1.28557E+01-1.87794E+03-1.33258E+01-1.20841E+01
 -1      1234-5.90223E+03-5.99917E+02 1.54954E+01-1.87904E+03-9.11652E+00-2.03091E+01
 -1      1235-5.99027E+03-5.79976E+02 3.81754E+01-1.87257E+03-1.25864E+01-1.74967E+01
 -1      1236-5.37940E+03-6.66366E+02 8.37720E+00-1.87747E+03-7.85892E+00-1.46398E+01
 -1      1237-5.56578E+03-6.44439E+02 9.22217E+00-1.87576E+03-5.15005E+00-1.71571E+01
 -1      1238-5.67085E+03-6.39566E+02 2.05150E+01-1.87863E+03-1.48527E+01-1.76338E+01
 -1      1239-5.05811E+03-6.86202E+02 1.06799E+01-1.86313E+03-9.98692E+00-1.33641E+01
 -1      1240-5.21670E+03-6.74734E+02 8.49817E+00-1.87822E+03-8.31858E+00-1.73165E+01
 -1      1241-5.30528E+03-6.78622E+02 2.00248E+01-1.88399E+03-1.22527E+01-1.90860E+01
 -1      1242-4.72911E+03-7.05214E+02 8.77267E+00-1.82498E+03-1.16149E+01-1.17095E+01
 -1      1243-4.89173E+03-6.95444E+02 9.82716E+00-1.84317E+03-4.80597E+00-1.26492E+01
 -1      1244-4.96756E+03-6.88796E+02 2.30574E+01-1.85753E+03-1.11359E+01-2.02812E+01
 -1      1245-4.40764E+03-7.34806E+02 1.86022E+00-1.78363E+03-9.22476E+00-1.82010E+01
 -1      1246-4.56250E+03-7.11536E+02 1.18549E+01-1.79534E+03-4.55516E+00-1.59598E+01
 -1      1247-4.63351E+03-7.03013E+02 2.24176E+01-1.80718E+03-9.00560E+00-1.86478E+01
 -1      1248-4.08133E+03-7.42418E+02 9.12253E+00-1.73098E+03-1.19985E+01-1.89356E+01
 -1      1249-4.24627E+03-7.31708E+02 2.91544E+00-1.76439E+03-7.67466E+00-2.01645E+01
 -1      1250-4.35400E+03-7.37592E+02 8.07676E+00-1.77194E+03-1.18727E+01-1.65440E+01
 -1      1251-3.78236E+03-7.39044E+02 7.91438E+00-1.66475E+03-1.50552E+01-2.11352E+01
 -1      1252-3.93538E+03-7.35760E+02 7.58756E+00-1.69955E+03-1.03067E+01-1.91711E+01
 -1      1253-4.01009E+03-7.22443E+02 1.79832E+01-1.70777E+03-8.57198E+00-1.77880E+01
 -1      1254-3.49332E+03-7.25277E+02 4.56964E+00-1.58716E+03-1.07938E+01-1.79217E+01
 -1      1255-3.63898E+03-7.24504E+02 7.45284E+00-1.62663E+03-8.69132E+00-1.91880E+01
 -1      1256-3.73809E+03-7.34942E+02 2.50203E+00-1.64428E+03-1.04141E+01-1.29942E+01
 -1      1257-3.21363E+03-6.98382E+02 8.56195E+00-1.50200E+03-1.15065E+01-1.21546E+01
 -1      1258-3.35494E+03-7.15583E+02 4.93336E+00-1.55229E+03-7.85497E+00-1.69157E+01
 -1      1259-3.43014E+03-7.14098E+02 1.44295E+01-1.57184E+03-1.04715E+01-1.75491E+01
 -1      1260-2.92278E+03-6.86959E+02 4.10123E+00-1.41112E+03-1.13399E+01-1.64788E+01
 -1      1261-3.07583E+03-6.92433E+02 2.30231E+00-1.45285E+03-4.41663E+00-1.45591E+01
 -1      1262-3.13937E+03-6.95227E+02 1.00824E+01-1.47959E+03-1.08279E+01-1.97315E+01
 -1      1263-2.66600E+03-6.47159E+02 3.65059E+00-1.31058E+03-1.04334E+01-1.42476E+01
 -1      1264-2.79021E+03-6.64771E+02 5.82622E+00-1.36628E+03-7.64992E+00-1.80692E+01
 -1      1265-2.86558E+03-6.82294E+02 2.06435E-01-1.38921E+03-1.12380E+01-1.57532E+01
 -1      1266-2.40273E+03-6.08792E+02 2.37341E+00-1.21127E+03-8.96616E+00-1.45729E+01
 -1      1267-2.52691E+03-6.28394E+02 4.25260E+00-1.25822E+03-7.06126E+00-1.50688E+01
 -1      1268-2.60177E+03-6.49072E+02 4.02609E+00-1.29059E+03-1.12297E+01-1.96513E+01
 -1      1269-2.12812E+03-5.72574E+02 3.61539E+00-1.10026E+03-1.21327E+01-1.63766E+01
 -1      1270-2.27191E+03-5.87755E+02 5.21629E-01-1.15708E+03-4.91446E+00-1.59572E+01
 -1      1271-2.32362E+03-5.97171E+02 7.69772E+00-1.18707E+03-1.15060E+01-1.93082E+01
 -1      1272-1.89561E+03-5.11795E+02 2.34062E+00-9.90478E+02-1.00644E+01-1.44775E+01
 -1      1273-2.00626E+03-5.42126E+02 4.82789E+00-1.04873E+03-8.94979E+00-1.73135E+01
 -1      1274-2.07014E+03-5.65104E+02 1.96501E+00-1.07847E+03-1.08541E+01-1.78120E+01
 -1      1275-1.64632E+03-4.57492E+02 2.00625E+00-8.70864E+02-1.05244E+01-1.30659E+01
 -1      1276-1.76630E+03-4.85329E+02 2.92612E+00-9.28666E+02-5.64524E+00-1.45271E+01
 -1      1277-1.82413E+03-4.98413E+02 5.81869E+00-9.63338E+02-1.03757E+01-1.94736E+01
 -1      1278-1.40301E+03-3.97964E+02 9.51090E-01-7.48889E+02-1.00142E+01-1.22734E+01
 -1      1279-1.52132E+03-4.27651E+02 2.96420E+00-8.07759E+02-4.74673E+00-1.53374E+01
 -1      1280-1.57621E+03-4.45365E+02 3.65584E+00-8.41175E+02-9.65097E+00-2.03043E+01
 -1      1281-1.14768E+03-3.43945E+02 2.38705E+00-6.25725E+02-1.07456E+01-1.61027E+01
 -1      1282-1.28071E+03-3.72375E+02-1.02868E+00-6.86274E+02-5.58316E+00-1.62324E+01
 -1      1283-1.34175E+03-3.92817E+02 7.18198E-01-7.21484E+02-1.23922E+01-1.86848E+01
 -1      1284-9.29972E+02-2.65042E+02 2.16208E+00-5.03690E+02-1.06805E+01-1.48811E+01
 -1      1285-1.03252E+03-3.04975E+02 3.37576E+00-5.67968E+02-9.42349E+00-1.73186E+01
 -1      1286-1.09168E+03-3.30702E+02-1.17617E+00-5.98742E+02-1.11513E+01-1.67998E+01
 -1      1287-6.94982E+02-2.00155E+02 5.04739E-01-3.75000E+02-1.07754E+01-1.17241E+01
 -1      1288-8.10616E+02-2.33673E+02 3.03391E+00-4.37571E+02-5.39623E+00-1.48666E+01
 -1      1289-8.63102E+02-2.49657E+02 4.63718E+00-4.73496E+02-1.04951E+01-1.98471E+01
 -1      1290-4.62911E+02-1.29803E+02 1.12599E+00-2.45698E+02-9.23702E+00-1.16823E+01
 -1      1291-5.74269E+02-1.62899E+02 2.85279E+00-3.08120E+02-5.69782E+00-1.53504E+01
 -1      1292-6.29966E+02-1.85575E+02 2.85767E+00-3.44295E+02-1.10106E+01-1.91657E+01
 -1      1293-2.27254E+02-7.18421E+01 2.28082E+00-1.28316E+02-5.77123E+00-1.13080E+01
 -1      1294-3.39652E+02-9.37968E+01 2.67178E+00-1.79895E+02-4.30459E+00-1.32874E+01
 -1      1295-3.94876E+02-1.15243E+02 2.97730E+00-2.14892E+02-9.28505E+00-1.70292E+01
 -1      1296-1.98615E+02-7.20015E+01-3.49566E+00-1.16044E+02-7.41272E+00-1.39770E+01
 -1      1297-2.39615E+03-6.12029E+02 8.41611E+00-1.21507E+03 5.32497E+00 1.35743E+01
 -1      1298-2.27079E+03-5.91318E+02 8.71083E+00-1.15832E+03 1.01583E+01 1.26299E+01
 -1      1299-2.66444E+03-6.48531E+02 9.25057E+00-1.31636E+03 4.03942E+00 1.41262E+01
 -1      1300-2.52714E+03-6.31050E+02 1.06961E+01-1.26359E+03 1.02580E+01 1.32936E+01
 -1      1301-2.47043E+03-6.21475E+02 6.79567E+00-1.23564E+03-3.46475E-01-5.36034E-01
 -1      1302-1.64331E+03-4.46114E+02 8.75275E+00-8.63762E+02 7.08668E+00 1.33494E+01
 -1      1303-1.53736E+03-4.19978E+02 4.96310E+00-8.06854E+02 8.19223E+00 5.11179E+00
 -1      1304-1.41116E+03-3.89096E+02 2.31270E+00-7.42077E+02-1.47559E+00 7.71317E+00
 -1      1305-1.28775E+03-3.72771E+02-4.41408E+00-6.87603E+02 8.76126E+00 9.69203E+00
 -1      1306-1.47325E+03-4.06552E+02 8.35794E+00-7.77351E+02 3.46362E-01 7.32061E+00
 -1      1307-5.73565E+02-1.67620E+02 8.90153E-02-3.12451E+02-9.38881E+00-1.16452E+01
 -1      1308-6.96077E+02-2.03219E+02 3.33821E-01-3.78887E+02-4.56835E+00-1.35391E+01
 -1      1309-5.27763E+02-1.43625E+02 7.41136E+00-2.80342E+02-1.51329E+00 9.75874E-01
 -1      1310-4.66570E+02-1.34870E+02 4.46358E+00-2.56792E+02-6.87793E+00-1.55458E+01
 -1      1311-3.41334E+02-1.00127E+02 7.85564E+00-1.86816E+02-7.58375E+00-8.15437E+00
 -1      1312-3.49603E+03-7.18199E+02 1.89043E+01-1.58173E+03 2.74517E+00 9.92083E+00
 -1      1313-3.35660E+03-7.12802E+02 1.74444E+01-1.54366E+03 5.84095E+00 8.56410E+00
 -1      1314-3.80446E+03-7.28753E+02 1.54709E+01-1.66861E+03 6.25768E+00 1.75416E+01
 -1      1315-3.65288E+03-7.31857E+02 1.37554E+01-1.62482E+03 1.02497E+01 1.11852E+01
 -1      1316-3.58599E+03-7.21362E+02 1.93406E+01-1.60291E+03-3.16027E+00-1.75638E+00
 -1      1317-3.21629E+03-7.00602E+02 1.26726E+01-1.50364E+03 5.43821E+00 1.13439E+01
 -1      1318-3.07573E+03-6.91987E+02 1.35456E+01-1.45994E+03 1.17048E+01 1.31863E+01
 -1      1319-2.93229E+03-6.76559E+02 1.14193E+01-1.41252E+03 6.31416E+00 1.42125E+01
 -1      1320-2.79712E+03-6.65543E+02 1.01229E+01-1.36404E+03 1.23294E+01 1.63170E+01
 -1      1321-3.00300E+03-6.77964E+02 1.73529E+01-1.43058E+03-1.16596E+00 2.81994E+00
 -1      1322-2.13843E+03-5.61437E+02 1.03131E+01-1.10110E+03 2.82608E+00 1.46565E+01
 -1      1323-2.00309E+03-5.29234E+02 1.10489E+01-1.03749E+03 5.04715E+00 8.32094E+00
 -1      1324-1.92556E+03-5.11466E+02 1.85994E+00-9.84830E+02 4.61484E+00 1.19877E+01
 -1      1325-1.77876E+03-4.87249E+02 7.87358E+00-9.25329E+02 8.98882E+00 6.54779E+00
 -1      1326-1.95391E+03-5.22749E+02 1.02895E+01-1.01735E+03 1.45137E+00-2.25310E+00
 -1      1327-7.96398E+02-2.36900E+02 7.50712E+00-4.35930E+02-1.28964E+01-1.59290E+01
 -1      1328-9.20118E+02-2.66637E+02 4.02570E+00-5.03481E+02-8.11137E+00-1.41761E+01
 -1      1329-1.03612E+03-3.06643E+02 3.89600E+00-5.66924E+02-7.65121E+00-1.06580E+01
 -1      1330-1.15176E+03-3.38815E+02 3.58508E+00-6.24154E+02-3.56414E+00-1.18399E+01
 -1      1331-9.83688E+02-2.77714E+02 2.99304E+00-5.26847E+02 1.83190E-01 2.65129E+00
 -1      1332-4.26826E+03-7.27916E+02 2.36473E+01-1.75278E+03-9.96033E+00-8.40905E+00
 -1      1333-4.45732E+03-7.24789E+02 1.55075E+01-1.77897E+03-4.06246E+00-8.93481E+00
 -1      1334-3.94729E+03-7.15452E+02 2.39567E+01-1.68399E+03-8.95391E+00-9.72146E+00
 -1      1335-4.09637E+03-7.19045E+02 1.86609E+01-1.72248E+03-2.77598E+00-1.26188E+01
 -1      1336-4.19022E+03-7.32078E+02 1.79671E+01-1.73924E+03-1.47007E+00 1.03763E+00
 -1      1337-8.66873E+03-1.69730E+02 7.12449E+01-1.18835E+03 3.22757E+00 8.71746E+00
 -1      1338-8.47996E+03-2.01283E+02 6.85220E+01-1.27248E+03 7.81719E+00 1.20889E+01
 -1      1339-8.40632E+03-2.27105E+02 6.44335E+01-1.31019E+03 2.18497E+00-2.92047E+00
 -1      1340-8.29188E+03-2.23592E+02 6.22747E+01-1.35552E+03 3.99999E+00 1.28827E+01
 -1      1341-8.11399E+03-2.54582E+02 6.07724E+01-1.43238E+03 1.23087E+01 1.74027E+01
 -1      1342-7.54319E+03-3.48126E+02 6.26212E+01-1.61559E+03 1.34566E+00 1.32525E+01
 -1      1343-7.33923E+03-3.72163E+02 6.62140E+01-1.65958E+03 7.73366E+00 6.81446E+00
 -1      1344-7.91545E+03-2.87288E+02 5.70400E+01-1.50165E+03 5.17198E+00 1.13470E+01
 -1      1345-7.73933E+03-3.20235E+02 5.54102E+01-1.56579E+03 1.31088E+01 1.66669E+01
 -1      1346-7.66894E+03-3.50636E+02 5.04982E+01-1.58673E+03-5.18172E-01 1.96292E+00
 -1      1347-9.23865E+03-9.83315E+01 6.52347E+01-8.83343E+02-1.22634E+01-2.42771E+01
 -1      1348-9.41974E+03-7.22381E+01 5.24425E+01-7.54074E+02-5.50347E+00-1.60362E+01
 -1      1349-9.04785E+03-1.16792E+02 7.25101E+01-9.85059E+02-6.12723E+00-1.52279E+01
 -1      1350-9.19505E+03-1.16422E+02 7.09456E+01-9.20434E+02 6.87258E+00-1.96450E+00
 -1      1351-8.85239E+03-1.45095E+02 6.86876E+01-1.08609E+03-1.40538E+01-1.94026E+01
 -1      1352-6.08338E+03-5.73318E+02 4.54053E+01-1.86787E+03 1.87264E+00 1.37888E+01
 -1      1353-5.88997E+03-5.86677E+02 4.89649E+01-1.86783E+03 6.12849E+00 5.75902E+00
 -1      1354-6.44281E+03-5.23784E+02 4.35963E+01-1.84223E+03 3.97486E+00 1.24494E+01
 -1      1355-6.26926E+03-5.54305E+02 4.04287E+01-1.85930E+03 1.12263E+01 1.41378E+01
 -1      1356-6.19660E+03-5.74088E+02 3.47305E+01-1.86054E+03-1.37072E+00 2.94971E+00
 -1      1357-5.40069E+03-6.46597E+02 3.19720E+01-1.87283E+03 9.97046E-01 1.16409E+01
 -1      1358-5.26087E+03-6.65841E+02 1.99290E+01-1.86717E+03 1.12778E+01 5.41517E+00
 -1      1359-5.16831E+03-6.84482E+02 2.53184E+01-1.86301E+03 4.25092E+00 1.36456E+00
 -1      1360-5.07608E+03-6.89575E+02 2.68957E+01-1.85366E+03 5.81832E-01 6.95052E+00
 -1      1361-4.90575E+03-7.06283E+02 2.22044E+01-1.84438E+03 9.02695E+00 1.07354E+01
 -1      1362-7.24229E+03-4.24178E+02 3.49040E+01-1.70295E+03 4.16261E+00 1.04392E+01
 -1      1363-7.00461E+03-4.53264E+02 4.62628E+01-1.75299E+03 1.05324E+01 9.04151E+00
 -1      1364-6.80633E+03-4.74266E+02 4.52199E+01-1.78465E+03 2.68369E+00 7.70567E+00
 -1      1365-6.62136E+03-5.04063E+02 4.49390E+01-1.82091E+03 5.54353E+00 1.27988E+01
 -1      1366-6.91738E+03-4.60088E+02 5.37312E+01-1.76461E+03-3.97167E+00-1.21323E+00
 -1      1367-9.62617E+03-5.18846E+01-4.95212E+00-6.37535E+02-1.15174E+01-1.31877E+01
 -1      1368-9.83054E+03-3.88212E+01-1.40094E+02-5.21813E+02 2.84872E+00 3.90647E+01
 -1      1369-9.89832E+03 5.73846E+00-3.51851E+02-5.03969E+02-1.44161E+00-2.04324E+00
 -1      1370-9.85105E+03 2.14242E+01-3.34388E+02-4.48624E+02 1.90463E+00 5.23998E+01
 -1      1371-9.71651E+03 5.74230E+01-7.61650E+02-3.91588E+02-1.36405E+01 1.13828E+02
 -1      1372-9.73295E+03 7.84520E+01-4.97827E+02-4.23228E+02-4.40550E+00 2.28682E+02
 -1      1373-9.42181E+03-7.21953E+01 5.81057E+01-7.53893E+02 3.90143E+00 1.58615E+01
 -1      1374-9.21515E+03-8.59493E+01 7.29645E+01-8.70653E+02 1.01030E+01 2.13515E+01
 -1      1375-9.54598E+03-6.97906E+01 2.42634E+01-6.97176E+02-1.38622E+00 1.74190E+00
 -1      1376-9.62557E+03-4.94314E+01-1.12900E+00-6.41600E+02 1.13586E+01 1.05846E+01
 -1      1377-9.82765E+03-4.07195E+01-1.33076E+02-5.22237E+02-1.36392E+00-3.95406E+01
 -1      1378-4.65917E+02-1.27312E+02 1.56347E+00-2.47104E+02 4.36924E+00 9.71879E+00
 -1      1379-3.40559E+02-9.63025E+01 5.50798E+00-1.87136E+02 7.99876E+00 9.78142E+00
 -1      1380-3.31761E+02-9.21869E+01 4.14325E+00-1.71504E+02-2.54896E+00 5.60934E-01
 -1      1381-2.69817E+02-8.30695E+01 2.77120E+00-1.47447E+02 3.02473E+00 1.10800E+01
 -1      1382-2.14601E+02-8.19602E+01-4.49656E+00-1.23574E+02 4.26153E+00 1.12865E+01
 -1      1383-2.08614E+02-8.11764E+01-9.79947E+00-1.18506E+02 2.70452E+00 7.73916E+00
 -1      1384-2.27492E+03-5.90218E+02 6.39983E+00-1.15948E+03-1.00445E+01-7.93820E+00
 -1      1385-2.39149E+03-6.09813E+02 1.02330E+01-1.21505E+03-5.75903E+00-1.37700E+01
 -1      1386-2.01027E+03-5.47657E+02 8.85581E+00-1.04854E+03-7.37273E+00-1.27100E+01
 -1      1387-2.13221E+03-5.64009E+02 9.19838E+00-1.09832E+03-3.43635E+00-1.31493E+01
 -1      1388-2.21167E+03-5.76407E+02 3.83811E+00-1.12540E+03-1.61831E+00 2.51384E+00
 -1      1389-4.40755E+03-7.19470E+02 2.23332E+01-1.78931E+03 4.70652E+00 1.09738E+01
 -1      1390-4.25085E+03-7.29150E+02 2.04861E+01-1.76121E+03 1.18048E+01 1.39012E+01
 -1      1391-4.72219E+03-7.08868E+02 2.54575E+01-1.82729E+03 2.74773E+00 1.21940E+01
 -1      1392-4.56354E+03-7.24286E+02 2.55824E+01-1.81358E+03 6.73477E+00 1.41794E+01
 -1      1393-4.49521E+03-7.14989E+02 2.85031E+01-1.79649E+03-3.04393E+00 2.99442E+00
 -1      1394-7.00730E+02-2.01600E+02 1.79737E+00-3.80307E+02 6.55226E+00 1.61772E+01
 -1      1395-5.78763E+02-1.65430E+02 6.57927E+00-3.09013E+02 8.45411E+00 9.30672E+00
 -1      1396-9.21499E+02-2.61046E+02 5.38031E+00-4.96473E+02 4.51272E+00 1.58934E+01
 -1      1397-8.01630E+02-2.30723E+02 2.26300E+00-4.35524E+02 7.58966E+00 1.15765E+01
 -1      1398-7.63206E+02-2.08145E+02 1.47827E+00-4.02004E+02 9.96877E-01-4.91769E+00
 -1      1399-3.36003E+03-7.10787E+02 1.33047E+01-1.55045E+03-1.08329E+01-1.19580E+01
 -1      1400-3.50345E+03-7.14410E+02 1.37712E+01-1.58482E+03-5.11654E+00-9.97975E+00
 -1      1401-3.06862E+03-6.89580E+02 1.29311E+01-1.45541E+03-8.93390E+00-1.21595E+01
 -1      1402-3.21207E+03-7.01732E+02 1.53335E+01-1.50253E+03-2.77432E+00-1.51132E+01
 -1      1403-3.29300E+03-7.10362E+02 1.03704E+01-1.52067E+03 6.00960E-01-1.45383E+00
 -1      1404-1.51372E+03-4.29146E+02 3.61595E+00-8.10025E+02-9.14995E+00-1.27855E+01
 -1      1405-1.63962E+03-4.58346E+02 6.29045E+00-8.70413E+02-4.48972E+00-1.46871E+01
 -1      1406-1.76178E+03-4.90549E+02 4.63292E+00-9.31671E+02-1.14577E+01-1.29092E+01
 -1      1407-1.88885E+03-5.13359E+02 4.64054E+00-9.93733E+02-5.02315E+00-1.07132E+01
 -1      1408-1.71008E+03-4.67964E+02 3.13654E+00-8.93369E+02 2.38153E+00-6.49203E-02
 -1      1409-2.80857E+03-6.67199E+02 9.90448E+00-1.36032E+03-9.49487E+00-1.10257E+01
 -1      1410-2.94018E+03-6.76196E+02 1.31707E+01-1.41345E+03-6.91291E+00-1.84634E+01
 -1      1411-2.52851E+03-6.37181E+02 8.97816E+00-1.26316E+03-7.88480E+00-1.26448E+01
 -1      1412-2.66459E+03-6.46978E+02 9.65000E+00-1.31076E+03-2.89700E+00-1.22754E+01
 -1      1413-2.74948E+03-6.59704E+02 5.49257E+00-1.33724E+03-1.41563E+00-1.12356E+00
 -1      1414-7.74636E+03-3.25335E+02 5.77494E+01-1.55494E+03-1.11407E+01-8.39221E+00
 -1      1415-7.98513E+03-2.98795E+02 4.82850E+01-1.48382E+03-4.81876E+00-9.23290E+00
 -1      1416-8.09013E+03-2.53025E+02 6.84160E+01-1.42129E+03-6.60697E+00-1.04362E+01
 -1      1417-8.28167E+03-2.21013E+02 7.08779E+01-1.35392E+03 2.13667E-01-1.53554E+01
 -1      1418-8.02575E+03-2.69692E+02 6.75342E+01-1.45993E+03-4.01376E+00 1.67918E+00
 -1      1419-5.92046E+03-5.91316E+02 3.80186E+01-1.87025E+03-9.54136E+00-1.19609E+01
 -1      1420-6.08548E+03-5.68391E+02 3.67147E+01-1.86860E+03-1.65749E+00-8.79759E+00
 -1      1421-5.56623E+03-6.44796E+02 2.62755E+01-1.88196E+03-1.31000E+01-1.08835E+01
 -1      1422-5.76249E+03-6.26432E+02 2.55969E+01-1.88177E+03-2.86166E+00-5.34942E+00
 -1      1423-5.85370E+03-6.13007E+02 3.45486E+01-1.88056E+03 3.63600E+00-6.85657E-01
 -1      1424-4.55425E+03-7.06624E+02 2.92638E+01-1.79957E+03-5.06536E+00-8.72509E+00
 -1      1425-4.72586E+03-7.05213E+02 3.02745E+01-1.82835E+03-2.34133E+00-1.49412E+01
 -1      1426-4.82834E+03-7.10475E+02 2.12932E+01-1.83288E+03 1.63766E+00-1.55689E+00
 -1      1427-4.89533E+03-7.01971E+02 2.64304E+01-1.84953E+03-1.02663E+01-1.59765E+01
 -1      1428-5.05295E+03-6.84841E+02 2.84156E+01-1.86627E+03-3.39272E+00-1.59821E+01
 -1      1429-6.99453E+03-4.47950E+02 4.44513E+01-1.75210E+03-1.31198E+01-1.26826E+01
 -1      1430-7.20419E+03-4.21631E+02 4.16705E+01-1.70994E+03-4.56586E+00-4.30438E+00
 -1      1431-7.37791E+03-3.81036E+02 5.08831E+01-1.66171E+03-9.62714E+00-1.12542E+01
 -1      1432-7.54842E+03-3.43688E+02 4.97059E+01-1.61021E+03-3.64153E+00-9.89588E+00
 -1      1433-7.30993E+03-4.05795E+02 5.00141E+01-1.69040E+03 3.95815E+00-4.77524E-01
 -1      1434-6.28513E+03-5.44831E+02 3.92033E+01-1.85444E+03-9.90528E+00-5.79814E+00
 -1      1435-6.43582E+03-5.24457E+02 4.47150E+01-1.83934E+03-5.96816E+00-1.34789E+01
 -1      1436-6.61868E+03-5.10276E+02 4.56972E+01-1.81362E+03-9.09659E+00-1.30868E+01
 -1      1437-6.81127E+03-4.70032E+02 4.67769E+01-1.78722E+03-4.09610E+00-1.47205E+01
 -1      1438-6.54446E+03-5.19106E+02 4.53314E+01-1.82490E+03-2.02817E+00 7.69349E-01
 -1      1439-9.81161E+03 3.97006E+01-8.25467E+02-3.55520E+02-8.70254E+00-1.23915E+02
 -1      1440-9.85430E+03 4.20612E+01-3.37101E+02-4.58010E+02 6.76487E-01-5.45185E+01
 -1      1441-9.80159E+03-1.55187E+01-5.77005E+02-3.80886E+02-2.06888E+01-1.92763E+02
 -1      1442-2.05108E+02-7.35617E+01-9.74902E+00-1.09420E+02 5.13422E-01-4.84685E+00
 -1      1443-2.05322E+02-7.05657E+01-2.79682E+00-1.17223E+02-6.83666E+00-1.35141E+01
 -1      1444-2.64011E+02-8.14169E+01 3.17031E-02-1.46015E+02-5.64320E+00-1.39940E+01
 -1      1445-9.06225E+03-1.09624E+02 6.37919E+01-9.82358E+02 6.13645E+00 2.01921E+01
 -1      1446-8.85946E+03-1.50552E+02 6.58491E+01-1.08735E+03 9.97618E+00 1.73903E+01
 -1      1447-8.78409E+03-1.63473E+02 7.83874E+01-1.12868E+03-1.82417E+00-1.94442E+00
 -1      1448-8.66546E+03-1.75275E+02 6.63962E+01-1.18967E+03-5.02385E+00-1.01041E+01
 -1      1449-8.47542E+03-1.99282E+02 6.72478E+01-1.28093E+03-6.94450E+00-1.59534E+01
 -1      1450-1.27553E+03-3.74771E+02 6.52638E+00-6.90032E+02-9.90950E+00-1.00710E+01
 -1      1451-1.40625E+03-4.04652E+02 2.16180E+00-7.58729E+02-6.37792E+00-1.68725E+01
 -1      1452-3.65498E+03-7.23064E+02 1.25365E+01-1.62080E+03-1.00151E+01-8.98739E+00
 -1      1453-3.81705E+03-7.28500E+02 1.25834E+01-1.66051E+03-3.79383E+00-7.54053E+00
 -1      1454-4.09504E+03-7.28794E+02 2.47192E+01-1.72779E+03 2.85947E+00 1.39789E+01
 -1      1455-3.93416E+03-7.25226E+02 2.47553E+01-1.69381E+03 9.01601E+00 1.02403E+01
 -1      1456-3.88636E+03-7.25902E+02 2.01739E+01-1.67514E+03 3.12946E+00-3.56657E+00
 -1      1457-5.79545E+03-6.28251E+02 2.18493E+01-1.87702E+03 3.99768E+00 9.15824E+00
 -1      1458-5.57691E+03-6.41158E+02 3.62847E+01-1.88044E+03 6.79933E+00 9.66447E+00
 -1      1459-5.49048E+03-6.43545E+02 3.95203E+01-1.87617E+03-3.24200E+00 1.60983E+00
 -1      1460-5.38872E+03-6.62247E+02 3.15104E+01-1.88114E+03-4.61081E+00-1.18498E+01
 -1      1461-5.22107E+03-6.79018E+02 3.32638E+01-1.87674E+03-6.95083E+00-1.49816E+01
 -1      1462-1.16105E+03-3.33428E+02 4.62427E+00-6.22722E+02 3.73153E+00 1.00864E+01
 -1      1463-1.04567E+03-3.03035E+02 5.04016E+00-5.63882E+02 1.00360E+01 1.10381E+01
 -1      1464-1.22194E+03-3.47117E+02 6.29686E+00-6.56085E+02 3.55692E-01 2.23961E+00
 -1      1465 1.27533E+03 5.50252E+02 9.49387E-01 8.91927E+02-2.85640E+00-3.30861E-01
 -1      1466 7.51356E+02 4.73100E+02 1.64283E+00 6.51709E+02-9.77782E-01 1.10460E-01
 -1      1467-7.61864E+02 2.89901E+01 5.62082E-01-1.80569E+02-1.08949E+00-3.10976E+00
 -1      1468 1.56031E+02 3.22749E+02 7.78862E-01 3.28022E+02 1.69758E+00 1.68866E+00
 -1      1469 1.73724E+03 5.64706E+02-2.50398E+00 1.05128E+03-2.56618E+00-2.66256E-01
 -1      1470-1.25989E+03-9.47320E+01-1.30567E+00-4.06755E+02 3.10841E-01-1.90487E+00
 -1      1471 2.02109E+03 5.48809E+02-1.78408E+00 1.13537E+03-3.17837E+00 2.05532E+00
 -1      1472-4.46976E+03-1.47750E+02-5.82061E+00-4.19058E+02 1.08966E+01-9.91636E+00
 -1      1473 3.95339E+03 1.88520E+02-5.81160E+00 1.14412E+03-9.06152E+00 1.32976E+00
 -1      1474 4.82252E+03-5.41016E+01 4.69380E+00 7.69672E+02-2.36440E+01-1.02014E+01
 -1      1475-3.34887E+03-2.17479E+02-3.61886E+00-7.43598E+02 6.97561E+00-4.21078E+00
 -1      1476 2.55909E+03 4.93082E+02 9.57174E-01 1.22718E+03-4.13831E+00 1.72990E+00
 -1      1477 3.55814E+03 2.98778E+02-4.71168E+00 1.21642E+03-9.30621E+00-2.91929E+00
 -1      1478-4.85818E+03-3.92209E+01 7.75746E+01-2.12708E+02-3.73500E+01 1.29516E+02
 -1      1479-1.66890E+03-1.66174E+02-1.04660E+00-5.50887E+02 1.52318E+00-3.39837E+00
 -1      1480 3.82232E+02 3.86047E+02 3.97247E+00 4.58079E+02-9.16232E-01 1.94093E+00
 -1      1481-2.76534E+02 1.69122E+02-7.57169E-01 8.25299E+01-7.05328E-01-1.63300E+00
 -1      1482-2.42552E+03-2.27451E+02-4.32880E+00-7.12181E+02 1.19625E+00-7.41578E+00
 -1      1483-5.24806E+02 1.00421E+02 1.40694E+00-5.80795E+01-1.38626E+00-4.70492E-01
 -1      1484-2.11100E+03-2.14631E+02 2.73384E+00-6.65992E+02 3.86043E+00-4.38806E+00
 -1      1485 2.91961E+03 4.17717E+02 2.89931E+00 1.23884E+03-1.18967E+01 1.89808E+00
 -1      1486-3.94317E+03-1.90928E+02 5.64526E+00-6.51256E+02 1.66022E+01-6.69156E+00
 -1      1487-2.99547E+03-2.35141E+02-2.70960E+00-7.59482E+02 4.55005E+00-7.91056E+00
 -1      1488 2.36388E+03-2.88699E+02-2.58117E+02-1.58518E+02-1.22964E+02 9.53639E+00
 -1      1489-1.58770E+02 2.94644E+02 2.25664E+00 2.06316E+02-1.15344E+00-1.77640E+00
 -1      1490-1.00469E+03-3.11569E+01 6.74408E-01-2.92039E+02-9.47683E-01-3.12257E+00
 -1      1491 1.00925E+03 5.17930E+02-1.14159E+00 7.74724E+02-1.87690E+00-2.00217E-01
 -1      1492 4.37686E+03 7.77172E+01 1.59277E+00 9.95553E+02-1.22340E+01-4.32031E-01
 -1      1493-4.88761E+03-1.38307E+02-7.32897E-01-2.39188E+02 1.66220E+01-3.82317E+00
 -1      1494-4.92806E+03-1.26919E+02-7.32906E+00-1.65664E+02 3.87885E+00 2.32863E+01
 -1      1495-1.74285E+02-1.85910E+02 5.56221E+00 1.98560E+02-7.54504E+01-4.27980E+00
 -1      1496-4.10481E+02 1.40850E+02 2.83039E-01 7.64565E+00-6.89319E-01-2.20985E+00
 -1      1497 1.43083E+03 5.51795E+02-2.42531E+00 9.45820E+02-1.51603E+00-3.94118E-01
 -1      1498 1.57815E+03 5.66116E+02 3.05672E+00 1.00684E+03-3.60176E+00 2.04178E-01
 -1      1499-2.15460E+02 2.22335E+02 2.40826E+00 2.31395E+02-1.88986E-01 1.62520E-02
 -1      1500 6.33782E+02 4.44951E+02-4.21352E-01 5.86352E+02-8.43808E-01-8.47231E-01
 -1      1501-1.39216E+03-1.21566E+02 5.77337E-02-4.58129E+02 8.03902E-01-2.51093E+00
 -1      1502 2.20831E+03 5.27727E+02-2.74707E+00 1.16600E+03-4.56988E+00-9.90099E-01
 -1      1503 2.39756E+03 5.15279E+02-1.87557E-01 1.20447E+03-5.42420E+00-1.60192E-01
 -1      1504-2.56802E+02 1.55453E+02 1.54064E+00 2.53984E+02 1.57912E+00-2.07269E+00
 -1      1505-6.51701E+02 6.98053E+01 1.19480E+00-1.17736E+02-7.20619E-01-1.17728E+00
 -1      1506 3.14783E+03 3.87708E+02-3.00209E+00 1.25532E+03-8.48423E+00 8.82511E-01
 -1      1507-8.79461E+02-6.37743E+00 1.21235E+00-2.39971E+02-6.56808E-01-1.92408E+00
 -1      1508-3.17867E+03-2.36496E+02 2.66572E+00-7.65276E+02 1.12271E+01-7.06740E+00
 -1      1509 3.75428E+03 2.36108E+02 2.35009E+00 1.17856E+03-1.59107E+01 7.48263E-01
 -1      1510 3.35018E+03 3.49778E+02-6.07216E+00 1.24296E+03-3.57677E+00 3.11826E-01
 -1      1511-2.87369E+02 6.87533E+01 4.12195E+00 2.89676E+02 1.06946E+00-2.17217E+00
 -1      1512 2.77889E+02 3.52203E+02-3.66004E+00 3.93408E+02 4.53859E-01-2.42822E+00
 -1      1513-2.26599E+03-2.20105E+02-1.54676E+00-6.91922E+02 3.28014E+00-3.82400E+00
 -1      1514 4.19328E+03 1.27348E+02-2.75438E+00 1.07161E+03-1.24604E+01-2.40117E+00
 -1      1515-2.76982E+02-1.02510E+00 9.44227E-02 3.14200E+02 2.17107E+00-2.66721E+00
 -1      1516-4.68526E+03-1.39554E+02-4.91920E+00-3.36657E+02 1.54072E+01-7.89988E+00
 -1      1517 4.62199E+03 1.98622E+01-1.18623E+01 9.01460E+02-1.01262E+01-3.92849E+00
 -1      1518 2.77964E+03 4.63103E+02-3.70427E+00 1.24561E+03-6.43576E+00-6.42590E-01
 -1      1519 8.68498E+02 4.96980E+02 2.37925E+00 7.12781E+02-1.10509E-01 2.90227E+00
 -1      1520 1.13954E+03 5.39239E+02-3.68910E-02 8.37111E+02-3.14657E-01 2.11404E+00
 -1      1521 1.87804E+03 5.51759E+02 3.34826E+00 1.08960E+03-6.62752E+00 1.52525E+00
 -1      1522 5.05837E+02 4.22102E+02-2.78702E+00 5.23747E+02-3.89972E-02 2.83243E-03
 -1      1523-1.13182E+03-7.15021E+01 4.82910E+00-3.56897E+02 2.47817E+00-1.93435E+00
 -1      1524-1.52608E+03-1.43989E+02-1.15990E+00-5.06519E+02 1.37185E+00-3.18128E+00
 -1      1525-2.24465E+02-1.36232E+02 2.73929E+00 3.04494E+02-1.35327E+01-1.58372E+00
 -1      1526 5.02556E+03-1.32746E+02-9.24504E+00 5.86918E+02-2.58887E+01-2.65037E+01
 -1      1527-2.71053E+03-1.94483E+02 2.17817E+02-2.75927E+02-1.10421E+02 3.63705E+00
 -1      1528-1.99247E+03-2.06221E+02-1.69668E+00-6.44515E+02 1.53949E+00-4.64841E+00
 -1      1529-1.83622E+03-1.98002E+02 2.86614E-01-6.09542E+02 1.36188E+00-5.52532E+00
 -1      1530-4.13516E+03-1.66564E+02-5.15879E+00-5.91155E+02 1.13434E+01-4.84412E+00
 -1      1531-4.32672E+03-1.54296E+02-4.66017E+00-5.18365E+02 1.19323E+01-7.08950E+00
 -1      1532-3.75514E+03-2.01643E+02-2.30439E+00-6.95704E+02 8.83595E+00-8.47502E+00
 -1      1533-2.51149E+02 1.44405E+02 4.15946E-01 2.61386E+02-7.68710E-01-9.07305E-01
 -1      1534-2.64237E+03-2.39088E+02 1.18533E+00-7.49482E+02 3.61568E+00-5.21465E+00
 -1      1535-2.74665E+02 8.97918E+01 3.64272E+00 2.84568E+02 3.04010E-01-2.28957E+00
 -1      1536-1.79057E+02 2.85004E+02-6.67568E-02 1.99899E+02-1.28278E-01-6.81504E-02
 -1      1537-1.90377E+02 2.78674E+02 1.11879E+00 1.93908E+02 4.50124E-01-1.17291E+00
 -1      1538-1.82940E+02 2.64731E+02 1.58716E+00 2.11726E+02 9.76177E-02-1.32951E+00
 -1      1539-1.93514E+02 2.67036E+02-1.78546E-01 2.13103E+02 8.15775E-01-1.50407E+00
 -1      1540-2.00867E+02 2.56252E+02 1.12130E+00 2.16881E+02-8.77655E-01-4.14851E-01
 -1      1541-1.82950E+02 2.80531E+02-6.77569E-01 2.02422E+02-2.08758E+00 8.95958E-01
 -1      1542-1.94241E+02 2.73475E+02 2.56081E+00 2.01844E+02 1.47605E+00-2.49888E-01
 -1      1543-2.06380E+02 2.02501E+02 1.63548E+00 2.46875E+02-1.00575E+00 3.19980E-01
 -1      1544-2.06970E+02 2.37678E+02-1.31560E+00 2.20593E+02-5.18675E-03-9.15497E-01
 -1      1545-2.57231E+02-5.89456E+01 4.48405E+00 3.29687E+02 1.75248E+00-1.59778E+00
 -1      1546-2.45145E+02-9.12275E+01-1.51637E+00 3.19560E+02 9.77506E-01-5.02489E+00
 -1      1547-1.86983E+02 2.71160E+02-1.15125E+00 2.08448E+02-1.75741E+00 3.31740E-01
 -1      1548-2.01869E+02 2.50333E+02 1.66479E+00 2.20358E+02-5.68112E-01-1.05350E+00
 -1      1549-2.38456E+02 1.28568E+02 9.25428E-03 2.72259E+02 1.73068E+00-2.41848E+00
 -1      1550-1.85674E+02 2.77149E+02 6.51125E-02 2.03604E+02-1.61616E-01-1.01078E+00
 -1      1551-2.46015E+02 1.10740E+02-1.32949E-01 2.78434E+02-7.30566E-01-1.59230E+00
 -1      1552-2.24464E+02 1.86910E+02 4.67209E-01 2.47268E+02 5.37753E-01-1.05956E+00
 -1      1553-2.06335E+02 2.11908E+02-3.01741E-01 2.40400E+02 1.31485E+00-1.58401E+00
 -1      1554-2.08352E+02 2.32961E+02 4.77247E-01 2.32426E+02-5.57516E-01-1.41008E+00
 -1      1555-2.82852E+03-2.44441E+02-6.05825E-01-7.68763E+02 7.58614E+00-4.63310E+00
 -1      1556-2.25456E+02 1.74555E+02 1.96135E+00 2.60321E+02-3.50842E-01-1.18165E-01
 -1      1557-2.56356E+02-2.40619E+01 1.05349E+00 3.28635E+02-7.54852E-01-6.18650E-01
 -1      1558-3.55617E+03-2.12141E+02-7.46017E+00-7.27685E+02 4.79008E+00-9.50571E+00
 -1      1559-2.40127E+02 5.03433E+01-9.88827E-01 3.02683E+02 1.91656E+00-2.46852E+00
 -1      1560-2.51241E+02 2.74453E+01-4.82239E-01 3.07129E+02-3.65106E-01-1.70781E+00
 -1      1561-2.07002E+02 2.59982E+02-3.48317E+00 1.90696E+02 6.83994E-01 4.58790E-01
 -1      1562 4.93110E+03-2.91518E+02-6.85309E+01 2.41197E+02-6.08280E+01-1.08102E+02
 -1      1563 3.00109E+01 2.84978E+02 2.40487E+00 2.43036E+02 8.77607E-02 9.88711E-01
 -1      1564-2.55835E+02-2.11922E+02 6.81647E+00 6.11210E+01-1.15762E+02-2.46834E+01
 -1      1565-6.67704E+03 1.83462E+02 6.39978E+02-2.96171E+02-8.05311E+01 2.54835E+01
 -1      1566 7.01836E+03-3.69850E+02-6.41037E+02-7.13921E+01-1.25874E+02 3.83954E-01
 -1      1567-1.35306E+02 1.36984E+02-2.86329E+00 1.00299E+02-2.21681E+00 2.24802E+00
 -1      1568-6.82228E+00 2.08589E+02 5.71110E+00 1.57783E+02-2.53309E+00-5.14821E-02
 -1      1569-1.97029E+02 2.99590E+02 3.29225E+00 2.07378E+02 4.53096E-01 2.56419E-01
 -1      1570 6.49970E+03 6.72584E+02 1.29341E+02-5.26565E+02-1.10052E+02 8.34697E+02
 -1      1571 1.06072E+04 1.30840E+03 1.29319E+03 5.43903E+02 1.96558E+02 1.48761E+03
 -1      1572 8.39347E+03-5.50220E+02-5.04447E+02-2.22542E+02-2.46973E+02-1.97503E+02
 -1      1573-9.49579E+03-1.47495E+03-1.26029E+03 1.12694E+02 1.38478E+02-1.07001E+03
 -1      1574-6.77175E+03-1.20119E+03-7.93093E+02-5.27829E+02 2.33715E+01-9.31946E+02
 -1      1575-7.32615E+03 5.22305E+02 5.47694E+02-6.28545E+02-2.46976E+02 3.14954E+02
 -1      1576 2.34997E+01 1.31317E+02 1.10383E+01 1.38308E+02-6.24475E+00 2.44943E-01
 -1      1577-9.83185E+01 1.57551E+02 9.91110E+00 1.86610E+02-1.90482E+00 7.07312E+00
 -1      1578 1.78786E+02 1.58704E+02 9.87126E-01 1.62098E+02 3.76466E+00-7.00375E+00
 -1      1579-1.02746E+02 2.43770E+02-8.87185E+00 1.08734E+02-6.89500E+00-2.66248E+00
 -1      1580-7.14701E+01 1.19967E+02-9.97653E+00 6.55763E+01-4.22134E+00 4.81951E+00
 -1      1581-1.54635E+02 2.83409E+01 3.37769E+00-4.09067E+00 3.97335E+00 2.37420E+00
 -1      1582 9.03340E+02-2.49723E+02-3.48726E+02-8.12694E+02-1.52445E+02-2.55072E+01
 -1      1583 4.22705E+03 8.80061E+02 7.00091E+02-6.00497E+02-1.67386E+02 7.38057E+02
 -1      1584 4.86545E+03-1.67165E+02-4.87299E+02-1.68502E+02-6.05292E+01 9.22133E+00
 -1      1585-4.65869E+03-1.31325E+03-9.20659E+02-6.89721E+02-1.29740E+02-7.38155E+02
 -1      1586-1.65850E+03-2.18004E+02-8.21787E+01-8.09931E+02-1.03938E+02-1.71692E+02
 -1      1587-9.37055E+01-1.68649E+02-1.19635E+00-2.52132E+02-8.09793E+01 9.57000E+00
 -1      1588-4.61143E+03-8.32967E+00 4.77793E+02-3.74066E+02-7.50212E+01-1.07231E+01
 -1      1589-1.34882E+02 1.89925E+02 8.78706E+00 2.06283E+02 1.19126E+00-8.48820E-01
 -1      1590-1.47586E+02 2.52199E+02 4.64440E+00 1.78972E+02 1.16894E+00-2.40246E+00
 -1      1591-9.31534E+01 2.47840E+02-3.84304E+00 1.88724E+02-5.14949E+00-6.85098E-01
 -1      1592-1.58291E+02 2.44601E+02-5.20679E+00 1.74982E+02 2.26162E+00-2.16918E+00
 -1      1593-1.38023E+02 2.81121E+02-7.31264E+00 1.33739E+02 2.21719E+00-1.48217E+00
 -1      1594-1.86511E+02 2.93166E+02 3.40579E+00 2.02232E+02-5.41596E+00-5.71934E-01
 -1      1595-1.72449E+02 2.19046E+02 4.89148E+00 1.44966E+02-2.78213E+00 3.01961E+00
 -1      1596 7.92702E+03-6.80355E+01 5.05620E+01 1.43981E+02 3.87516E+01-3.03480E+01
 -1      1597 7.91476E+03-1.35572E+02-5.36872E+01 4.43910E+02-2.80469E+01-4.65762E+01
 -1      1598 5.77024E+03-2.93344E+02-1.11696E+02 3.42122E+01-7.78784E+01-1.05148E+02
 -1      1599 7.94856E+03-6.65859E+01-1.47904E+01 6.10379E+02-1.21001E+01-8.99606E+00
 -1      1600 7.87463E+03-2.06381E+01-1.57874E+01 7.88339E+02-1.36379E+01-1.79056E+01
 -1      1601 4.96176E+03-2.05649E+02-8.92813E+00 4.25873E+02-3.77322E+01-3.26210E+01
 -1      1602 7.78384E+03 2.69833E+01 2.63815E+00 8.90006E+02-1.31263E+01-1.06537E+01
 -1      1603 7.58664E+03 5.02962E+01 1.33526E+01 1.01042E+03-1.76667E+01-1.17724E+01
 -1      1604 4.94830E+03-7.89231E+01-5.38639E-01 6.93954E+02-2.17217E+01-1.95769E+01
 -1      1605 7.46687E+03 7.99848E+01 1.45742E+00 1.08534E+03-1.09723E+01-1.32500E+01
 -1      1606 7.25762E+03 1.12500E+02-1.13729E+01 1.17934E+03-6.40309E+00-8.50315E+00
 -1      1607 4.74282E+03-7.81497E+00 2.17639E+00 8.43850E+02-2.31405E+01-8.24382E+00
 -1      1608 7.13631E+03 1.48222E+02 3.42411E+00 1.24263E+03-9.00364E+00-5.25911E+00
 -1      1609 6.90646E+03 1.78454E+02 5.48744E+00 1.32619E+03-8.53645E+00-1.00202E+01
 -1      1610 4.50583E+03 5.10267E+01-6.95073E+00 9.52965E+02-8.84250E+00 1.48455E-01
 -1      1611 6.80752E+03 2.19230E+02-6.16196E-01 1.37162E+03-1.10538E+01-1.26015E+01
 -1      1612 6.58227E+03 2.51674E+02-8.44516E+00 1.43456E+03-5.08769E+00-2.81761E+00
 -1      1613 4.30553E+03 1.15810E+02-7.56540E-01 1.04404E+03-1.00825E+01-6.43191E+00
 -1      1614 6.45095E+03 2.69165E+02-5.96993E+00 1.47876E+03-6.99305E+00-5.62246E+00
 -1      1615 6.24701E+03 3.13467E+02-3.44119E+00 1.53393E+03-4.28172E+00-4.13443E+00
 -1      1616 4.08553E+03 1.55291E+02 2.97661E-01 1.10744E+03-1.31573E+01 3.09788E+00
 -1      1617 6.13390E+03 3.39013E+02-5.64108E-01 1.56103E+03-9.80024E+00-2.97661E+00
 -1      1618 5.91334E+03 3.72217E+02 1.20231E+01 1.59719E+03-1.27308E+01-5.18542E+00
 -1      1619 3.87445E+03 2.21579E+02-2.74368E-01 1.16576E+03-9.88550E+00 1.87903E+00
 -1      1620 5.79428E+03 3.99963E+02 7.03071E-01 1.62326E+03-1.22432E+01-1.03642E+01
 -1      1621 5.57968E+03 4.30372E+02 1.08324E+00 1.65081E+03-6.69719E+00-7.90854E+00
 -1      1622 3.67337E+03 2.74467E+02 3.70017E+00 1.20111E+03-1.64428E+01-2.84183E+00
 -1      1623 5.46391E+03 4.57936E+02-1.30310E+00 1.66856E+03-7.90024E+00-8.85448E+00
 -1      1624 5.26060E+03 4.85456E+02-7.85347E+00 1.68567E+03-2.53823E+00-6.95527E+00
 -1      1625 3.46414E+03 3.28944E+02-2.37805E+00 1.23448E+03-9.58888E+00-2.26046E+00
 -1      1626 5.15062E+03 5.08270E+02-2.48680E+00 1.69864E+03-7.05237E+00-2.20174E+00
 -1      1627 4.95731E+03 5.39990E+02-4.71644E-01 1.70597E+03-4.22076E+00-4.75272E+00
 -1      1628 3.25376E+03 3.68326E+02-4.09194E+00 1.25070E+03-4.29233E+00 2.39799E+00
 -1      1629 4.83189E+03 5.55287E+02 2.17929E-01 1.70355E+03-7.65163E+00-1.11800E+00
 -1      1630 4.63187E+03 5.77187E+02 1.03714E+01 1.69857E+03-1.04331E+01-4.60518E+00
 -1      1631 3.04676E+03 4.11152E+02 2.45108E+00 1.25216E+03-7.95860E+00 3.12103E+00
 -1      1632 4.53933E+03 5.99098E+02-2.08420E+00 1.70490E+03-1.02000E+01-8.20324E+00
 -1      1633 4.35429E+03 6.18358E+02-5.14298E+00 1.69204E+03-3.29520E+00-1.93520E+00
 -1      1634 2.85695E+03 4.47640E+02 3.39132E+00 1.24665E+03-1.35916E+01-1.33752E+00
 -1      1635 4.24086E+03 6.33675E+02 3.74119E+00 1.68591E+03-6.38177E+00-4.64356E+00
 -1      1636 4.05413E+03 6.47152E+02 2.24235E+00 1.67188E+03-5.17339E+00-7.88389E+00
 -1      1637 2.67288E+03 4.73565E+02-1.33499E+00 1.23758E+03-6.63236E+00 2.49407E+00
 -1      1638 3.96456E+03 6.59902E+02 1.78813E-01 1.66055E+03-7.15990E+00-6.86296E+00
 -1      1639 3.77654E+03 6.69785E+02 2.02404E+00 1.63708E+03-3.85010E+00-8.82456E+00
 -1      1640 2.48236E+03 5.08675E+02-1.46443E+00 1.21987E+03-4.24766E+00-1.13620E+00
 -1      1641 3.67549E+03 6.86523E+02-3.34476E+00 1.61817E+03-6.21711E+00-8.99279E+00
 -1      1642 3.49601E+03 6.86200E+02-6.50369E+00 1.58428E+03-1.53044E+00-2.22964E+00
 -1      1643 2.30909E+03 5.32544E+02-1.35426E+00 1.19196E+03-3.09009E+00-4.96349E+00
 -1      1644 3.39840E+03 6.91290E+02-1.60979E+00 1.57166E+03-3.67872E+00-3.26672E+00
 -1      1645 3.23993E+03 6.99082E+02-1.56136E+00 1.53865E+03-2.41229E+00-2.44160E+00
 -1      1646 2.11855E+03 5.36012E+02 2.07426E+00 1.15257E+03-5.27993E+00 3.36740E+00
 -1      1647 3.15862E+03 6.99612E+02 2.37316E+00 1.51720E+03-3.94883E+00-2.10756E-01
 -1      1648 2.99185E+03 6.97218E+02 9.12981E+00 1.47533E+03-7.52340E+00-4.10203E+00
 -1      1649 1.96143E+03 5.59162E+02 2.40848E+00 1.11536E+03-1.99577E+00 2.74332E+00
 -1      1650 2.90587E+03 7.03388E+02 8.69399E-01 1.45513E+03-7.86823E+00-6.48478E+00
 -1      1651 2.75431E+03 6.95710E+02-4.42143E+00 1.40791E+03-2.60047E+00-1.76537E+00
 -1      1652 1.81054E+03 5.63319E+02 4.83781E+00 1.07551E+03-1.00176E+01-1.30634E+00
 -1      1653 2.67422E+03 6.99408E+02 6.58385E+00 1.38673E+03-5.57198E+00-2.74825E+00
 -1      1654 2.52026E+03 6.89373E+02 2.93654E+00 1.34326E+03-3.26841E+00-7.93961E+00
 -1      1655 1.65821E+03 5.65443E+02-8.82695E-01 1.02923E+03-3.28170E+00 1.85812E+00
 -1      1656 2.43579E+03 6.85441E+02-4.83184E+00 1.30798E+03-3.14816E+00-6.65767E+00
 -1      1657 2.28625E+03 6.68777E+02-3.28257E+00 1.25301E+03-1.24045E+00-2.32482E-01
 -1      1658 1.50310E+03 5.64962E+02-2.24606E+00 9.78649E+02-9.83553E-01-4.57244E+00
 -1      1659 2.21046E+03 6.68859E+02 3.51678E+00 1.22901E+03-5.23943E+00-5.02809E+00
 -1      1660 2.06258E+03 6.48242E+02 3.31841E+00 1.17525E+03-4.49172E+00-5.96149E+00
 -1      1661 1.34944E+03 5.48387E+02-1.46641E+00 9.21611E+02-3.15839E+00 2.15536E+00
 -1      1662 1.98946E+03 6.40738E+02 2.55855E+00 1.14511E+03-5.49202E+00-4.98632E+00
 -1      1663 1.85249E+03 6.19069E+02-1.08870E+00 1.08958E+03-2.06205E+00-5.83277E+00
 -1      1664 1.20510E+03 5.45102E+02-6.34170E-01 8.65130E+02-4.01197E+00 1.27273E+00
 -1      1665 1.78050E+03 6.12325E+02-2.38359E+00 1.05753E+03-4.03463E+00-5.58091E+00
 -1      1666 1.64253E+03 5.86547E+02-3.13614E+00 9.98401E+02-5.29399E-01-2.68408E+00
 -1      1667 1.07695E+03 5.34892E+02 1.26412E+00 8.09245E+02 5.99213E-01-5.44646E-01
 -1      1668 1.57472E+03 5.72155E+02 3.17932E+00 9.65942E+02-2.70416E+00-2.25720E+00
 -1      1669 1.44700E+03 5.52072E+02 1.54402E+00 9.08933E+02-2.20097E+00-4.71944E+00
 -1      1670 9.40007E+02 5.06646E+02 2.97810E+00 7.45486E+02-1.74439E+00 3.29145E+00
 -1      1671 1.38061E+03 5.37947E+02 2.74918E-01 8.74946E+02-3.95874E+00-4.93817E+00
 -1      1672 1.25062E+03 5.08872E+02 9.16579E-01 8.14429E+02-2.17653E+00-6.96929E+00
 -1      1673 8.13806E+02 4.90362E+02 2.56595E-01 6.85687E+02 1.00268E+00-6.64122E-01
 -1      1674 1.19029E+03 4.97200E+02-7.11436E-01 7.79646E+02-3.70366E+00-5.99003E+00
 -1      1675 1.06102E+03 4.60972E+02 1.46124E+00 7.16229E+02-3.70187E+00-5.54624E+00
 -1      1676 6.89596E+02 4.64073E+02 3.14574E-01 6.21284E+02 4.70731E-01-2.67959E+00
 -1      1677 9.94086E+02 4.52431E+02-4.22718E-01 6.83485E+02-5.08808E+00-5.41297E+00
 -1      1678 8.72064E+02 4.17439E+02-4.58679E+00 6.20230E+02 1.18418E+00-1.66272E+00
 -1      1679 5.66673E+02 4.36947E+02 3.64896E-01 5.58294E+02-3.94716E+00-1.60191E+00
 -1      1680 8.13576E+02 3.96631E+02 4.58539E+00 5.85852E+02-2.11859E+00-1.58450E+00
 -1      1681 6.95351E+02 3.69396E+02 2.09471E+00 5.26064E+02-1.48121E+00-5.35027E+00
 -1      1682 4.44894E+02 4.02537E+02 2.63558E+00 4.92055E+02-6.59551E-01 2.75416E+00
 -1      1683 6.33708E+02 3.53807E+02-5.18737E+00 4.88199E+02-2.02820E+00-6.20729E+00
 -1      1684 5.11015E+02 3.10992E+02-5.26367E+00 4.21733E+02 1.42820E+00-1.90740E+00
 -1      1685 3.34377E+02 3.78281E+02-1.06153E+00 4.29709E+02 1.92978E+00-4.73181E+00
 -1      1686 4.53526E+02 2.94052E+02 7.25431E-01 3.89641E+02-4.71769E-01-2.08224E+00
 -1      1687 3.48267E+02 2.62054E+02 4.34445E-01 3.27120E+02 3.15866E-01-7.99442E-01
 -1      1688 2.15470E+02 3.36182E+02 2.51023E+00 3.63240E+02 2.51997E-01 1.79004E+00
 -1      1689 2.71872E+02 2.36283E+02 1.02404E+00 2.81149E+02 9.83805E-01 6.94581E-01
 -1      1690 1.77995E+02 2.01579E+02 9.80782E-02 2.20081E+02-9.79032E-01 2.06343E+00
 -1      1691 9.94767E+01 3.07706E+02 3.21326E+00 2.86708E+02 3.56343E+00 1.57210E+00
 -1      1692 2.91335E+01 2.49531E+02 5.74462E+00 2.06562E+02-1.73393E+00-1.74540E+00
 -1      1693-7.07216E+03-3.37950E+00 8.06207E+01-3.64073E+02-2.45458E+01 8.60954E+01
 -1      1694-7.11605E+03-1.50057E+02-1.09935E+02-3.61916E+02 6.23696E+01 9.63346E+01
 -1      1695-5.48919E+03 8.28131E+01 1.32412E+02-3.23228E+02-6.29748E+01 1.56657E+02
 -1      1696-7.09331E+03-9.77886E+01 3.18852E+00-4.68936E+02 5.36622E+00 2.11932E+01
 -1      1697-7.17747E+03-8.95579E+01-4.16040E+00-3.78776E+02 1.16863E+01 1.86660E+01
 -1      1698-4.89840E+03-1.12602E+02 5.59950E+00-1.49061E+02-3.08501E+00 3.19463E+01
 -1      1699-6.90453E+03-1.31384E+02-4.86652E+00-6.27345E+02 9.34122E+00-4.57224E+00
 -1      1700-7.05198E+03-1.06206E+02 1.01445E+01-5.27773E+02 1.46252E+01 4.72042E+00
 -1      1701-4.89848E+03-1.22542E+02-1.13320E+00-1.89037E+02 1.49198E+01 9.66675E+00
 -1      1702-6.63219E+03-1.59802E+02-6.66998E+00-7.72357E+02 8.56791E+00-8.57900E+00
 -1      1703-6.79287E+03-1.28984E+02-2.19807E+00-6.85115E+02 5.07499E+00-7.01531E+00
 -1      1704-4.77042E+03-1.34869E+02 1.12983E+00-2.86790E+02 1.56497E+01-9.26384E+00
 -1      1705-6.34095E+03-1.95281E+02-5.93372E+00-8.98582E+02 5.78811E+00-5.60948E+00
 -1      1706-6.50486E+03-1.63239E+02-4.15402E+00-8.23726E+02 3.49888E+00-7.28213E+00
 -1      1707-4.55950E+03-1.38672E+02-1.15469E+00-3.79048E+02 1.18675E+01-1.08484E+01
 -1      1708-6.08383E+03-2.23465E+02-1.69742E-01-1.01500E+03 1.06498E+01-9.02951E-01
 -1      1709-6.26164E+03-2.00521E+02-8.67731E+00-9.54040E+02 2.78340E+00-6.30828E+00
 -1      1710-4.38792E+03-1.54189E+02-1.61239E+00-4.69374E+02 1.36569E+01-9.22869E+00
 -1      1711-5.80214E+03-2.62336E+02 4.03545E-01-1.10823E+03 1.19258E+01-6.63857E-01
 -1      1712-5.98295E+03-2.40873E+02-2.32341E-01-1.05892E+03 6.89517E+00-2.20832E+00
 -1      1713-4.21607E+03-1.52394E+02-4.00055E-01-5.49798E+02 1.37409E+01-3.84207E+00
 -1      1714-5.50316E+03-2.91411E+02 5.26341E+00-1.18224E+03 8.34516E+00-4.91099E+00
 -1      1715-5.69429E+03-2.75800E+02 1.10113E+01-1.14235E+03 1.22391E+01-3.79638E+00
 -1      1716-4.02939E+03-1.73485E+02 2.81078E+00-6.17610E+02 1.81437E+01-4.03260E+00
 -1      1717-5.24298E+03-3.34619E+02 9.30025E-02-1.24010E+03 2.88516E+00-7.15341E+00
 -1      1718-5.41629E+03-3.12348E+02-4.12851E+00-1.21049E+03 6.61777E+00-5.70999E+00
 -1      1719-3.84414E+03-1.87480E+02-3.31413E+00-6.68627E+02 1.09092E+01-7.55149E+00
 -1      1720-4.96581E+03-3.71121E+02 6.62583E-02-1.27978E+03 5.21056E+00-2.09808E+00
 -1      1721-5.13653E+03-3.51935E+02-7.39537E+00-1.26374E+03 2.88079E+00-4.85502E+00
 -1      1722-3.65532E+03-2.04687E+02-7.87856E+00-7.10112E+02 3.38926E+00-1.05963E+01
 -1      1723-4.68307E+03-3.97227E+02 1.89892E-02-1.30210E+03 9.31887E+00 7.96432E-02
 -1      1724-4.85479E+03-3.80847E+02 1.06113E+00-1.29148E+03 4.00872E+00-1.33544E+00
 -1      1725-3.44828E+03-2.08121E+02-1.80262E+00-7.30369E+02 9.11606E+00-6.05364E+00
 -1      1726-4.41330E+03-4.25023E+02 4.04972E-01-1.31608E+03 4.45684E+00-6.56934E+00
 -1      1727-4.58494E+03-4.08451E+02 9.96297E+00-1.31513E+03 8.88112E+00-3.41071E+00
 -1      1728-3.25363E+03-2.21712E+02 2.80564E+00-7.50598E+02 1.29070E+01-4.10774E+00
 -1      1729-4.16022E+03-4.49008E+02-2.55880E+00-1.31378E+03 2.35170E+00-4.11953E+00
 -1      1730-4.31450E+03-4.29079E+02-2.36718E+00-1.31584E+03 9.68157E-01-4.95347E+00
 -1      1731-3.07228E+03-2.26462E+02 1.70231E+00-7.59025E+02 5.14742E+00-8.58018E+00
 -1      1732-3.90775E+03-4.61711E+02-3.78706E+00-1.30436E+03 2.39864E+00-6.22382E+00
 -1      1733-4.06341E+03-4.47246E+02-5.07063E-01-1.31666E+03 3.00717E-01-6.73034E+00
 -1      1734-2.90179E+03-2.40210E+02 3.00964E+00-7.62075E+02 7.28475E+00-8.75741E+00
 -1      1735-3.65292E+03-4.69618E+02 8.33724E-01-1.27970E+03 3.23819E+00-4.39815E+00
 -1      1736-3.80703E+03-4.64525E+02-6.89691E-01-1.29554E+03 9.66784E-01-1.88033E+00
 -1      1737-2.72942E+03-2.35348E+02 2.71634E+00-7.56262E+02 4.45806E+00-5.29193E+00
 -1      1738-3.39025E+03-4.71591E+02 1.13335E-01-1.23787E+03 3.50579E+00-9.14108E-01
 -1      1739-3.53794E+03-4.70540E+02-4.95304E+00-1.26485E+03 1.07072E+00-2.96569E+00
 -1      1740-2.53173E+03-2.31187E+02-3.25796E+00-7.30602E+02 3.83164E-01-6.34341E+00
 -1      1741-3.15153E+03-4.68522E+02 1.35445E+00-1.19764E+03 6.12034E+00 9.62382E-01
 -1      1742-3.30243E+03-4.72789E+02 1.27036E+00-1.22760E+03 2.57057E+00 4.70230E-01
 -1      1743-2.34586E+03-2.19431E+02 2.79992E-01-6.99546E+02 5.01153E+00-5.04392E+00
 -1      1744-2.91657E+03-4.61589E+02 4.65548E+00-1.14947E+03 3.10095E+00-1.96710E+00
 -1      1745-3.06902E+03-4.69574E+02 5.29444E+00-1.18144E+03 4.33874E+00 6.76276E-01
 -1      1746-2.18896E+03-2.14456E+02 6.65911E-02-6.74942E+02 7.22577E+00-3.31445E+00
 -1      1747-2.71940E+03-4.55913E+02 1.25574E+00-1.10448E+03 8.98394E-01-1.99433E+00
 -1      1748-2.85548E+03-4.62235E+02-1.64064E+00-1.14016E+03 2.31489E+00-1.66977E+00
 -1      1749-2.05251E+03-2.08701E+02-3.04457E+00-6.55529E+02 4.39363E-01-4.76176E+00
 -1      1750-2.49807E+03-4.43401E+02 1.76507E-01-1.04108E+03-4.49604E-01-2.29777E+00
 -1      1751-2.62871E+03-4.49898E+02-7.71660E-01-1.08345E+03 1.36861E+00-5.53023E+00
 -1      1752-1.91600E+03-2.03533E+02-3.85767E+00-6.27248E+02 1.55582E+00-6.74611E+00
 -1      1753-2.27787E+03-4.10161E+02-1.28008E-01-9.65800E+02 4.58442E+00 1.84004E+00
 -1      1754-2.41093E+03-4.28122E+02-4.67234E+00-1.01120E+03-1.35568E+00-1.42931E+00
 -1      1755-1.75239E+03-1.83257E+02 2.57579E+00-5.77688E+02 3.26822E+00-5.37037E+00
 -1      1756-2.06978E+03-3.84317E+02 1.37183E+00-8.94011E+02 4.85985E+00 2.17985E+00
 -1      1757-2.20221E+03-4.06145E+02 4.81501E-01-9.43073E+02 2.53058E+00 1.67626E+00
 -1      1758-1.59600E+03-1.49695E+02 1.51789E+00-5.25372E+02 3.22595E+00-1.89337E+00
 -1      1759-1.86966E+03-3.52865E+02 1.44068E+00-8.17368E+02 4.04013E+00 2.47123E+00
 -1      1760-1.99966E+03-3.77295E+02 1.78531E+00-8.68777E+02 2.34576E+00 2.42518E+00
 -1      1761-1.46088E+03-1.30256E+02-4.99047E-01-4.78923E+02 3.57715E+00-2.08839E+00
 -1      1762-1.67804E+03-3.15940E+02-1.85600E-01-7.36611E+02 5.29455E+00 2.16981E+00
 -1      1763-1.80294E+03-3.43835E+02 4.43139E-01-7.90995E+02 1.35623E+00 2.34260E+00
 -1      1764-1.32834E+03-1.04458E+02-5.89355E-02-4.29231E+02 1.71751E+00-2.02588E+00
 -1      1765-1.47958E+03-2.76572E+02 6.69485E+00-6.51618E+02 1.98307E+00-2.14125E+00
 -1      1766-1.61135E+03-3.06923E+02 6.79923E+00-7.06781E+02 4.64510E+00 2.49837E+00
 -1      1767-1.20157E+03-8.08086E+01 2.92581E+00-3.79473E+02 5.59417E+00-8.04732E-01
 -1      1768-1.30359E+03-2.33987E+02 2.38986E+00-5.66670E+02-1.20479E-01-4.32919E-01
 -1      1769-1.41647E+03-2.59046E+02 2.05225E-01-6.21026E+02 6.85313E-01-5.51923E-01
 -1      1770-1.06785E+03-4.79200E+01-1.28623E+00-3.25029E+02-1.63182E+00-2.84503E+00
 -1      1771-1.12073E+03-1.89654E+02-8.11886E-01-4.78108E+02 1.76260E-02-2.75073E+00
 -1      1772-1.23235E+03-2.15972E+02 1.58786E+00-5.34880E+02-5.46507E-01-3.63565E+00
 -1      1773-9.50225E+02-2.65447E+01-2.65304E+00-2.66697E+02 2.90868E-01-5.53489E+00
 -1      1774-9.42177E+02-1.44070E+02 8.84234E-01-3.85712E+02-2.15241E+00-3.04789E+00
 -1      1775-1.04999E+03-1.68955E+02 1.80373E+00-4.45313E+02 4.36022E-01-1.50873E+00
 -1      1776-8.21440E+02 1.61865E+01-2.96432E+00-2.10292E+02-4.30445E+00-2.99423E+00
 -1      1777-7.67007E+02-8.64388E+01 1.75933E+00-2.93505E+02 2.31139E+00 1.19380E+00
 -1      1778-8.77628E+02-1.20418E+02-2.60100E-01-3.50891E+02-6.44769E-01 2.21866E+00
 -1      1779-7.08866E+02 5.00015E+01 2.25409E+00-1.51570E+02-1.58377E+00-1.74628E+00
 -1      1780-5.90128E+02-3.63715E+01 7.30961E-01-1.98139E+02-3.94010E-01-1.56913E+00
 -1      1781-6.97640E+02-6.64874E+01 2.12934E+00-2.58144E+02-3.26689E-01-1.98749E+00
 -1      1782-5.91125E+02 8.21657E+01-8.60562E-01-8.67031E+01 6.00157E-01-2.33624E+00
 -1      1783-4.15557E+02 1.58311E+01 1.31926E+00-1.03719E+02 1.02905E+00-1.91051E-01
 -1      1784-5.21950E+02-1.34430E+01 9.18125E-01-1.63138E+02 7.70484E-01 5.11697E-01
 -1      1785-4.71581E+02 1.21268E+02-2.97258E+00-2.91285E+01-4.42393E+00-1.17525E+00
 -1      1786-2.36630E+02 6.12794E+01-1.07655E+00-7.44798E+00-1.08567E+00-1.45486E+00
 -1      1787-3.37873E+02 3.82361E+01 1.19726E+00-6.28060E+01-9.42672E-02-1.50785E+00
 -1      1788-3.49406E+02 1.49086E+02-2.84337E+00 4.28838E+01 9.08979E-01-4.05758E+00
 -1      1789-2.14739E+02 1.46090E+02-5.55284E+00 8.19637E+01-7.12344E-01 1.79173E+00
 -1      1790 6.03043E+02 3.98563E+02-2.18625E-01 5.84425E+02-3.62012E+00-1.66548E+00
 -1      1791 5.32250E+02 3.97788E+02-1.20804E+00 5.58120E+02-3.09710E+00 2.53064E+00
 -1      1792 5.36668E+02 4.05879E+02 3.08321E+00 5.57766E+02-1.30785E+00 1.52142E+00
 -1      1793 4.67502E+02 4.01391E+02-1.64131E-01 5.31967E+02-1.94586E-01 5.01689E+00
 -1      1794-1.97805E+02 2.47561E+02 3.77345E+00 2.26269E+02-4.26120E-01 2.84041E-01
 -1      1795 2.74559E+02 3.85372E+02 1.59362E+00 4.32636E+02 4.62357E-01 1.71569E+00
 -1      1796 2.18464E+02 3.67760E+02 2.18333E-01 4.00853E+02 2.64414E+00 3.95168E-01
 -1      1797 3.36600E+02 3.90835E+02 2.16158E+00 4.67022E+02 5.87221E+00 2.90961E+00
 -1      1798 2.72922E+02 3.72021E+02-6.43026E-01 4.34218E+02 1.46326E+00 1.78255E+00
 -1      1799-1.94557E+02 2.72569E+02-2.22209E+00 2.10377E+02-9.92623E-01-1.73998E+00
 -1      1800-4.21475E+02 1.78392E+02 2.42221E+00 4.36691E+01-2.65763E+00-1.14566E+00
 -1      1801-4.81158E+02 1.57382E+02-8.71972E-01 1.40903E+01-7.76189E-01-1.28131E+00
 -1      1802-4.76295E+02 1.64219E+02 4.50928E+00 1.78302E+01 1.09314E+00 1.48150E-01
 -1      1803-5.43388E+02 1.31195E+02-6.69393E-01-1.81491E+01 4.78626E-01 8.85324E-02
 -1      1804-1.91279E+02 2.78005E+02 1.46379E+00 2.07128E+02 1.01303E+00 2.14669E-01
 -1      1805 3.76690E+01 3.15937E+02-1.59743E+00 2.93369E+02-1.88025E+00-3.11932E+00
 -1      1806-1.86008E+01 3.07299E+02-5.64359E-01 2.65290E+02-1.04595E+00-6.09023E-01
 -1      1807-1.36141E+01 3.12884E+02 1.32725E+00 2.67802E+02 2.78378E+00-7.46725E-01
 -1      1808-1.82329E+02 2.88984E+02 1.88993E+00 2.02445E+02 5.29694E-01 5.57133E-02
 -1      1809-7.99109E+01 2.93866E+02-1.12367E+00 2.29132E+02 8.24061E-01 1.58072E+00
 -1      1810 7.53438E+02 4.03024E+02 4.23644E+00 6.45665E+02-2.51234E+00 1.18327E+00
 -1      1811 6.80723E+02 4.01408E+02 5.46436E-02 6.19903E+02-2.69612E+00 2.13982E+00
 -1      1812 7.52512E+02 3.95279E+02 8.80096E-02 6.50814E+02-1.25283E+00-8.15715E-02
 -1      1813-2.17394E+02 2.20566E+02 2.23499E+00 2.40002E+02 9.69664E-03-7.51769E-01
 -1      1814 8.27943E+02 3.90309E+02 2.30210E+00 6.70079E+02-4.45337E+00 3.41013E+00
 -1      1815-7.34055E+02 8.64820E+01 2.28867E+00-9.21273E+01-1.89788E+00-4.11454E+00
 -1      1816-8.00187E+02 7.26726E+01 2.85663E-01-1.16111E+02-2.01291E+00-4.42364E+00
 -1      1817-6.71533E+02 1.05786E+02 2.60319E+00-7.09488E+01 4.71034E+00-5.73221E+00
 -1      1818-7.33753E+02 9.09615E+01-9.70348E-01-9.30303E+01 7.14056E-02-3.70031E+00
 -1      1819-1.98127E+02 2.62300E+02 3.56668E+00 2.16396E+02 3.88480E-01-1.82994E-01
 -1      1820 9.85911E+02 3.59844E+02 2.19939E+00 7.06860E+02-4.40029E+00-7.37487E-01
 -1      1821 9.07517E+02 3.79595E+02 1.47248E+00 6.93792E+02-2.95170E+00-1.77736E-01
 -1      1822 9.11048E+02 3.86242E+02 3.15020E+00 6.92409E+02 1.77808E+00-1.42913E+00
 -1      1823 8.40057E+02 3.82350E+02 4.16755E+00 6.70675E+02-3.79899E+00-1.48347E+00
 -1      1824-2.16863E+02 1.99102E+02 3.38646E+00 2.51961E+02 7.34221E-01 1.11471E+00
 -1      1825-2.35123E+03-7.80035E+01 6.84720E+00-3.87107E+01-5.30893E-01-6.45651E+00
 -1      1826-2.46543E+03-8.66470E+01 2.87911E+00-3.41759E+00 5.73147E+00-4.27636E+00
 -1      1827-2.29716E+03-7.67138E+01 2.51033E+00-9.48373E+01 3.69128E+00-5.78650E+00
 -1      1828-2.34889E+03-7.04547E+01 4.13014E-01-4.73788E+01 3.65706E+00-4.61629E+00
 -1      1829-2.42548E+02-3.83276E+01 1.69849E+00 3.33854E+02 5.97020E-01-1.93096E+00
 -1      1830 1.85920E+03 1.29989E+02 4.37959E+00 7.29053E+02 4.05318E-01-2.08551E+00
 -1      1831 1.75675E+03 1.38374E+02 5.04792E+00 7.42157E+02-8.53425E+00-2.89506E+00
 -1      1832 1.94908E+03 6.80784E+01 4.43033E+00 6.95631E+02-8.19755E+00-2.29174E+00
 -1      1833 1.85767E+03 1.15224E+02 3.36314E+00 7.27628E+02-4.59648E+00-1.75219E+00
 -1      1834-2.56569E+02 1.96675E+01 4.77324E+00 3.17650E+02 1.78346E+00-3.75804E-01
 -1      1835 2.28549E+03-5.81860E+01 4.10421E+00 5.56840E+02-1.39489E+01-3.23746E+00
 -1      1836 2.18613E+03-1.77665E+01 1.59441E+00 6.21518E+02-4.91677E+00-4.19994E+00
 -1      1837 2.29414E+03-8.98786E+01 6.09661E+00 5.35089E+02-1.88079E+01-7.14295E+00
 -1      1838 2.42007E+03-1.09137E+02 1.27604E+01 4.59026E+02-1.86411E+01-1.28394E+01
 -1      1839-2.25105E+02-1.11158E+02-3.66555E-01 3.10909E+02-5.20834E+00-4.63164E+00
 -1      1840-1.71993E+03-5.11648E+01 3.35125E+00-2.37561E+02 7.12830E+00-7.47822E+00
 -1      1841-1.80914E+03-4.49409E+01-1.55346E+00-2.27805E+02 1.86664E+00-3.61288E+00
 -1      1842-1.81369E+03-5.04229E+01 4.37680E+00-2.24927E+02 1.56652E+00-6.82641E+00
 -1      1843-2.61872E+02 1.02213E+02 4.04228E+00 2.85069E+02 9.79079E-01-6.73088E-01
 -1      1844-1.91246E+03-4.60010E+01 2.53357E+00-2.17687E+02 1.47963E+00-8.64589E+00
 -1      1845 1.14493E+03 3.35580E+02 2.60901E+00 7.43479E+02 3.02292E+00 7.43168E-01
 -1      1846 1.06785E+03 3.42623E+02 2.85026E-01 7.32151E+02-7.98974E-01 7.99431E-01
 -1      1847 1.15734E+03 3.31395E+02-4.26027E-01 7.43258E+02-2.88289E+00 1.20607E+00
 -1      1848-2.52435E+02 1.53413E+02-5.97271E-01 2.60550E+02 1.45271E+00-1.15543E-03
 -1      1849 1.25902E+03 3.21393E+02 5.96483E+00 7.59047E+02-4.44178E+00 2.55754E-01
 -1      1850 1.75339E+03 1.57270E+02 4.20888E+00 7.47590E+02-8.39837E+00 2.10163E+00
 -1      1851 1.64898E+03 1.86214E+02-1.30884E+00 7.64950E+02-2.42124E+00-2.20665E+00
 -1      1852 1.63259E+03 1.98493E+02 4.28420E+00 7.58847E+02-1.66113E+00 1.50366E+00
 -1      1853 1.53990E+03 2.22934E+02 3.07351E+00 7.67069E+02 1.00200E+00 2.50974E+00
 -1      1854-2.64688E+02 6.16583E+01 3.75235E+00 3.00976E+02 3.08193E-01-3.80878E+00
 -1      1855-2.53745E+03-1.38997E+02-4.27789E+00 3.03306E+01-3.35759E+01 1.34288E+01
 -1      1856-2.56380E+03-1.41283E+02 1.41904E+01-2.11573E+00-4.66102E+01 2.11468E+01
 -1      1857-2.09755E+02-1.98992E+02 4.25152E+00 1.29208E+02-9.32794E+01-1.37054E+01
 -1      1858-2.54795E+03-1.37013E+02 6.92303E+01-7.72716E+01-8.04445E+01 5.18012E+01
 -1      1859-3.67389E+03 2.50496E+01 1.24604E+02-2.92453E+02-1.51937E+02 5.93762E+01
 -1      1860-1.48217E+03-2.42219E+02 1.41971E+01-1.34023E+02-1.49143E+02 7.12207E+00
 -1      1861-8.65617E+02 5.96114E+01 2.53771E+00-1.38882E+02-3.94794E-01-4.65688E+00
 -1      1862-9.41728E+02 4.45848E+01-7.66639E-01-1.60255E+02-3.89271E-01-7.11554E+00
 -1      1863-9.40183E+02 3.62381E+01 1.65951E+00-1.61012E+02-5.09475E-01-3.43190E+00
 -1      1864-1.02735E+03 2.41809E+01-1.31128E+00-1.85278E+02 1.73109E+00-2.45370E+00
 -1      1865-2.07712E+02 2.34592E+02 3.24157E+00 2.27592E+02-2.83694E-01-2.12107E+00
 -1      1866 9.60114E+01 3.48610E+02 2.14130E+00 3.33173E+02 1.62917E+00 8.78142E-01
 -1      1867 4.76200E+01 3.26713E+02 1.57020E-01 3.02637E+02 3.57782E+00-7.37877E-01
 -1      1868 1.57144E+02 3.52263E+02-1.17871E+00 3.65840E+02 1.48162E+00 1.39047E+00
 -1      1869 9.36893E+01 3.39802E+02-2.16637E+00 3.34386E+02-5.53489E-01 1.29106E+00
 -1      1870-1.87830E+02 2.84919E+02-1.09809E+00 2.04630E+02-1.15391E+00-8.69127E-01
 -1      1871-2.42183E+02 2.32929E+02 3.40815E-01 1.43263E+02-1.44213E+00-2.89686E+00
 -1      1872-3.04882E+02 2.15734E+02-2.45602E+00 1.06972E+02 1.38349E+00-3.13945E+00
 -1      1873-2.48816E+02 2.37641E+02-6.68507E-02 1.48900E+02-3.44078E+00-2.01735E+00
 -1      1874-1.90779E+02 2.92836E+02 1.48257E+00 2.03974E+02-1.14943E-01 3.50941E-01
 -1      1875-2.35828E+02 2.19145E+02-2.36414E-01 1.42058E+02 4.07335E+00-1.44398E+00
 -1      1876-2.09091E+02 2.79000E+02-3.27913E+00 1.90690E+02 1.72163E+00-3.45081E+00
 -1      1877-1.24416E+03-8.85619E-01 4.12279E+00-2.17187E+02 7.43617E-01-5.65895E+00
 -1      1878-1.32617E+03-6.66463E+00 1.08881E+00-2.27907E+02 1.51891E+00-9.51747E+00
 -1      1879-1.32715E+03-1.56973E+01 4.81018E+00-2.24523E+02-2.65625E+00-3.31630E+00
 -1      1880-1.43634E+03-3.17425E+01 3.91122E-02-2.47580E+02 2.99413E-01-2.82063E+00
 -1      1881-2.23235E+02 1.80070E+02 4.47365E+00 2.55424E+02-1.30839E-04-9.92220E-01
 -1      1882-3.02082E+02 2.19225E+02 3.39190E+00 1.05391E+02 8.76744E-01-7.05539E-01
 -1      1883-3.64107E+02 1.88300E+02-4.61699E-02 6.88388E+01-1.66860E-01 4.05397E-01
 -1      1884-3.53183E+02 1.94629E+02 2.01047E+00 7.06750E+01 2.45396E-01 1.06648E+00
 -1      1885-4.22389E+02 1.72147E+02-1.75975E+00 4.44024E+01-1.91781E-01-1.01409E+00
 -1      1886-1.85689E+02 2.75194E+02 9.31376E-01 1.97248E+02-9.51544E-01 1.22889E+00
 -1      1887-1.16755E+03 4.66247E+00 2.35706E+00-2.05113E+02 2.83061E+00-5.55484E+00
 -1      1888-1.24752E+03-1.57785E+00 6.35752E-02-2.17130E+02-4.06649E-01-3.50186E+00
 -1      1889-1.10591E+03 1.64465E+01 2.25495E+00-1.99737E+02 1.15734E+00-9.91981E-01
 -1      1890-1.16004E+03 5.46985E+00 2.76478E-01-2.12591E+02 5.85671E-01-4.68574E+00
 -1      1891-2.00448E+02 2.07617E+02-8.64712E-01 2.40735E+02 1.14418E-01-5.53030E-01
 -1      1892 1.45807E+03 2.66890E+02 5.75517E+00 7.69493E+02-3.91028E-01-2.02127E-01
 -1      1893 1.34260E+03 2.69525E+02 4.12534E+00 7.59663E+02-6.57733E+00-2.52335E+00
 -1      1894 1.33468E+03 2.84570E+02 3.25361E+00 7.61746E+02-6.56532E+00 2.81294E+00
 -1      1895 1.25392E+03 3.05703E+02-1.90850E+00 7.65128E+02-2.32518E+00-8.98837E-01
 -1      1896-2.34338E+02 1.20399E+02-1.73343E+00 2.72092E+02 4.35616E-01-2.04562E+00
 -1      1897-2.10738E+03-6.83979E+01 3.64858E+00-1.65756E+02 1.04160E+01-7.75174E+00
 -1      1898-2.20391E+03-5.86666E+01-1.63031E+00-1.35644E+02 4.12155E+00-4.30492E+00
 -1      1899-1.99749E+03-5.30152E+01 6.77998E+00-1.89953E+02 3.97594E+00-3.27799E+00
 -1      1900-2.09128E+03-6.69022E+01 4.38847E+00-1.75736E+02 9.68108E+00-2.97081E+00
 -1      1901-2.37054E+02 3.98115E+01-2.11414E+00 3.01317E+02 6.81509E-01-2.32081E+00
 -1      1902-1.61380E+03-3.76034E+01 3.79619E+00-2.40608E+02-1.27594E+00-2.78756E+00
 -1      1903-1.70467E+03-4.92645E+01 4.03173E+00-2.44590E+02 7.12850E+00-2.15473E+00
 -1      1904-1.61920E+03-3.59776E+01 1.43080E+00-2.46367E+02 3.18038E+00-2.48850E+00
 -1      1905-2.51197E+02 1.39678E+02 3.26540E+00 2.73019E+02 2.37071E-01-2.75911E+00
 -1      1906-1.53467E+03-4.08004E+01 5.65852E+00-2.51480E+02 6.34772E+00-9.39153E-01
 -1      1907 9.55839E+02-1.69015E+02 1.48490E+01-6.89325E+01-1.35210E+02-1.95449E+01
 -1      1908 3.53104E+03-3.27055E+02-1.17282E+02-9.20505E+00-1.73493E+02-5.02546E+01
 -1      1909 2.35953E+03-1.86267E+02-2.04503E+01 1.45397E+02-8.54150E+01-5.96464E+01
 -1      1910-1.67724E+02 3.04124E+02 4.85266E+00 2.14420E+02 3.43325E+00-2.66729E+00
 -1      1911-7.55303E+01 2.91874E+02-1.51446E+00 2.18137E+02 2.50443E+00-5.63231E+00
 -1      1912-8.67089E+01 3.04421E+02 4.78568E+00 2.29694E+02 7.46369E-01 3.33409E+00
 -1      1913-5.31992E+02 1.36883E+02 3.23242E+00-1.66835E+01 1.26542E+00 5.01665E-01
 -1      1914-6.05381E+02 1.17429E+02-1.89526E+00-4.07187E+01 1.87802E+00-1.99667E+00
 -1      1915-6.02016E+02 1.21022E+02 2.31035E+00-3.87820E+01-1.29611E+00-5.64034E-01
 -1      1916-6.56885E+02 9.94657E+01 1.90587E+00-7.04952E+01 1.48405E-01-1.18403E-01
 -1      1917 4.10634E+02 3.97219E+02 3.17426E+00 4.95071E+02-7.51420E-01 3.29268E-01
 -1      1918 3.37314E+02 3.85400E+02-3.09765E+00 4.65075E+02-3.18382E-01 1.36402E+00
 -1      1919 4.66068E+02 4.06124E+02 2.37098E+00 5.29628E+02 2.25234E+00 2.08968E+00
 -1      1920 3.99672E+02 3.88326E+02-5.41345E-01 4.97685E+02-8.34652E-01 1.82794E+00
 -1      1921 2.06392E+03 5.22862E+01 5.36478E+00 6.69834E+02-3.94292E+00 3.07111E+00
 -1      1922 1.97946E+03 6.59686E+01 2.61722E+00 7.06550E+02-1.25412E-01 2.76190E-01
 -1      1923 2.18699E+03 3.40493E+00 5.28086E+00 6.28597E+02 1.34077E+00-8.59316E-01
 -1      1924 2.05708E+03 2.38883E+01 3.46951E+00 6.62606E+02-1.55546E+00 9.80050E-03
 -1      1925-2.54772E+03-1.15312E+02 7.19051E+00 4.77714E+01 5.95393E+00-7.83807E+00
 -1      1926-2.59158E+03-1.17073E+02-1.45529E+00 7.84480E+01-4.44895E+00 5.32220E+00
 -1      1927-2.45577E+03-8.33583E+01 7.05877E+00 3.08613E+00 3.96044E+00-6.40286E+00
 -1      1928-2.56566E+03-1.02026E+02-7.39574E-02 4.17060E+01 7.51027E+00-7.78284E+00
 -1      1929-1.91459E+02-1.57485E+02 2.49267E+00 2.68163E+02-4.13562E+01 9.93957E-01
 -1      1930 2.42932E+03-1.38537E+02 1.00193E+01 3.91376E+02-4.74352E+01-2.24850E+01
 -1      1931 2.40950E+03-1.79175E+02 9.32722E+00 2.34147E+02-5.79370E+01-2.20010E+01
 -1      1932 6.80270E+02 4.09704E+02 9.02466E-01 6.22114E+02 1.51691E-01 1.57831E-01
 -1      1933 6.08380E+02 4.00515E+02 2.43051E-01 5.94736E+02 3.84665E+00-5.13363E-01
 -1      1934-2.10125E+02 2.30034E+02-4.85214E-01 2.35310E+02-9.54737E-01-1.40130E+00
 -1      1935-1.10735E+03 1.45460E+01 1.09732E+00-2.04745E+02 3.90931E+00-4.26403E+00
 -1      1936-1.02936E+03 2.40177E+01 5.87312E+00-1.85488E+02 1.85005E+00-2.35320E+00
 -1      1937 2.11226E+02 3.63656E+02 1.82533E+00 3.97859E+02 1.50270E+00 1.79493E+00
 -1      1938 1.51422E+02 3.53379E+02 8.96190E-02 3.68168E+02 4.39418E-01 1.21754E+00
 -1      1939-1.89799E+02 2.68578E+02 1.63598E+00 2.04638E+02-3.83513E-01 7.96945E-01
 -1      1940-8.03538E+02 7.14878E+01 1.89832E+00-1.17378E+02-1.00357E+00-4.86546E+00
 -1      1941-8.67844E+02 5.99751E+01-9.90601E-03-1.39118E+02-5.56192E-01-5.00724E+00
 -1      1942-1.99053E+02 2.56892E+02 3.11576E+00 2.22098E+02-1.11679E+00-1.59189E+00
 -1      1943 1.08324E+03 3.59444E+02 3.14865E+00 7.36810E+02-1.78096E-01 2.17400E+00
 -1      1944 9.93752E+02 3.60161E+02 7.96165E-01 7.20340E+02 3.63808E+00-5.84068E-01
 -1      1945-2.35465E+02 1.70388E+02 3.58012E-01 2.61357E+02-1.55380E-01-2.06161E+00
 -1      1946-1.54580E+03-4.55345E+01 3.77778E-01-2.57793E+02 4.58683E+00 1.63565E+00
 -1      1947-1.44378E+03-2.41361E+01 6.60115E+00-2.45669E+02-3.81711E-01-3.31541E+00
 -1      1948 1.53817E+03 2.33646E+02 3.12040E+00 7.66582E+02 2.71822E+00 4.38610E-01
 -1      1949 1.44157E+03 2.47574E+02 2.81603E+00 7.70019E+02-2.19022E+00-2.84580E-01
 -1      1950-2.68226E+02 8.21329E+01 7.41383E+00 2.91597E+02 5.61526E-01-2.22923E+00
 -1      1951-2.02432E+03-5.84895E+01 3.58804E+00-2.03436E+02 4.61130E+00-6.06041E+00
 -1      1952-1.92091E+03-5.29563E+01 3.96159E+00-2.12153E+02-7.32682E-01-5.72862E+00
 -1      1953-2.61316E+02-1.60852E+01 4.05568E+00 3.21892E+02-5.66306E-01-2.40079E+00
 -1      1954-2.20336E+03-5.92970E+01 5.48015E+00-1.30578E+02 5.75207E+00-7.81646E+00
 -1      1955-2.29498E+03-5.67274E+01 1.93481E+00-9.93166E+01 5.26179E+00-9.40414E+00
 -1      1956-2.46130E+02-7.07775E+01 4.54395E+00 3.36047E+02 6.82416E-01-3.98756E+00
 -1      1957-1.88532E+02 2.68362E+02-2.10461E+00 2.12130E+02 1.40489E+00-1.62999E+00
 -1      1958 1.28067E+03 5.49786E+02-9.73642E-01 8.91512E+02 1.84652E+00 2.97958E-01
 -1      1959 7.45322E+02 4.80671E+02 9.13979E-01 6.54537E+02 4.14185E-01-8.72603E-01
 -1      1960-7.64686E+02 3.07931E+01 3.32757E+00-1.79826E+02-9.61278E-02 1.37099E+00
 -1      1961 1.68689E+02 3.27794E+02 1.06817E+00 3.31992E+02-1.21304E+00-1.96984E+00
 -1      1962 1.72744E+03 5.63408E+02-2.57349E-01 1.05598E+03 4.21216E+00 2.74783E+00
 -1      1963-1.26039E+03-9.63805E+01 2.18691E+00-4.06658E+02-9.16352E-01 1.87461E+00
 -1      1964 2.03770E+03 5.47056E+02 4.21003E-01 1.13355E+03 4.03091E+00-2.97883E-01
 -1      1965-4.45410E+03-1.42294E+02-9.43821E+00-4.21457E+02-7.62372E+00 5.76086E+00
 -1      1966 3.92812E+03 1.85338E+02-3.61371E+00 1.13595E+03 9.66022E+00-2.17239E+00
 -1      1967 4.83630E+03-4.11491E+01-5.70638E+00 7.74711E+02 1.59045E+01 7.34027E+00
 -1      1968-3.31032E+03-2.19660E+02-3.98555E+00-7.28362E+02-6.20648E+00 7.95357E+00
 -1      1969-2.77498E+03-2.27302E+02-4.61382E+00-7.41612E+02-8.01390E-01 6.00511E+00
 -1      1970-3.67941E+03-1.92652E+02-2.01121E+00-6.72326E+02-9.43543E+00 7.37396E+00
 -1      1971-4.85086E+03-3.74775E+01 7.89567E+01-2.12089E+02 3.74141E+01-1.28504E+02
 -1      1972-1.66734E+03-1.68419E+02 2.48932E+00-5.53149E+02-1.95995E+00 3.06109E+00
 -1      1973 3.80185E+02 3.85571E+02 3.31470E+00 4.56243E+02 4.55214E-01-2.00055E+00
 -1      1974-2.83531E+02 1.66133E+02 5.63465E-01 8.18441E+01 3.12947E-01 7.47722E-01
 -1      1975-2.43557E+03-2.35616E+02 2.89578E+00-7.20553E+02-6.14907E+00 5.35344E+00
 -1      1976-5.27915E+02 1.00421E+02 5.09132E-01-5.99581E+01 3.90854E-01 4.59563E-01
 -1      1977-2.10781E+03-2.19577E+02-1.68099E+00-6.63114E+02-1.95428E+00 3.90631E+00
 -1      1978 2.93564E+03 4.16562E+02-2.75163E+00 1.23998E+03 5.88764E+00 3.93265E-01
 -1      1979 2.42982E+03 5.17786E+02-8.46376E-01 1.21166E+03 4.91641E+00-8.40345E-02
 -1      1980 3.30696E+03 3.40130E+02-2.44032E+00 1.23667E+03 6.26067E+00-1.64357E+00
 -1      1981 2.37075E+03-2.83301E+02-2.49985E+02-1.58978E+02 1.20390E+02-9.99622E+00
 -1      1982-1.65176E+02 2.91117E+02 4.73171E-01 2.09761E+02 1.25907E+00 1.03088E+00
 -1      1983-1.00545E+03-3.43256E+01-2.78996E-01-2.97916E+02-2.87899E-01 1.66500E+00
 -1      1984 1.00164E+03 5.14657E+02 1.94079E+00 7.72193E+02 2.14448E+00-1.53494E+00
 -1      1985-4.06636E+03-1.70795E+02-5.79775E+00-5.70298E+02-9.93344E+00 8.04836E+00
 -1      1986 4.35068E+03 7.22942E+01-4.50697E+00 1.00014E+03 1.04964E+01 1.47498E-01
 -1      1987-4.86332E+03-1.45621E+02-5.62368E+00-2.49170E+02-1.44537E+01 2.38117E+00
 -1      1988-4.93646E+03-1.25630E+02-3.89226E+00-1.63223E+02-4.55676E+00-2.61346E+01
 -1      1989-1.67588E+02-1.85674E+02 9.99415E+00 1.96585E+02 6.96824E+01 4.58370E+00
 -1      1990-4.11787E+02 1.35123E+02 4.19072E-01 3.23741E+00-2.64196E-01 1.04294E+00
 -1      1991 1.42474E+03 5.55249E+02-7.60487E-01 9.45822E+02 2.82846E+00 5.83753E-01
 -1      1992 1.57813E+03 5.59212E+02 1.09675E-01 9.99156E+02 4.58355E+00-3.43107E-01
 -1      1993-2.13971E+02 2.18911E+02 6.43210E-01 2.29828E+02-1.01795E-02 6.69230E-01
 -1      1994 6.25111E+02 4.44349E+02 1.58031E+00 5.84014E+02 1.10589E+00-1.46055E+00
 -1      1995 2.21931E+03 5.40317E+02 1.46776E+00 1.17788E+03 3.61889E+00-1.43046E+00
 -1      1996-1.39549E+03-1.18918E+02 4.77783E-02-4.55419E+02 7.23976E-01 4.67414E+00
 -1      1997-6.41760E+02 7.01535E+01-1.70560E+00-1.17693E+02 1.65050E+00 2.67091E+00
 -1      1998-8.82774E+02-7.35017E+00 2.09096E+00-2.42664E+02-9.45440E-01 9.92863E-01
 -1      1999 3.12680E+03 3.85708E+02-1.18404E+00 1.24276E+03 7.93193E+00-6.17333E-02
 -1      2000-3.12044E+03-2.29095E+02-2.72501E+00-7.42778E+02-6.07116E+00 3.67011E+00
 -1      2001-2.96861E+03-2.33433E+02-6.11864E-01-7.54956E+02-6.75387E+00 7.62959E+00
 -1      2002-2.00639E+02 1.49544E+02 1.17487E+00 2.83132E+02-4.42687E-01 1.38997E+00
 -1      2003 3.73961E+03 2.33011E+02-3.16954E+00 1.17021E+03 9.68171E+00 1.20393E+00
 -1      2004 3.52366E+03 2.96264E+02-3.47117E+00 1.21472E+03 9.39955E+00 1.15131E+00
 -1      2005 2.81059E+02 3.55794E+02 9.17549E-02 3.94421E+02-1.05660E+00-2.68625E-01
 -1      2006-2.61758E+03-2.33853E+02-3.01186E+00-7.42140E+02-4.03114E+00 3.92377E+00
 -1      2007-3.87116E+03-1.91794E+02-3.47707E+00-6.34483E+02-1.08011E+01 6.46615E+00
 -1      2008-2.27630E+03-2.18005E+02-2.86664E-01-6.86440E+02-2.13718E+00 3.91575E+00
 -1      2009 4.16393E+03 1.36534E+02-5.76326E+00 1.07050E+03 1.14810E+01 2.51653E+00
 -1      2010-4.68653E+03-1.40300E+02-3.85050E+00-3.37975E+02-1.69641E+01 8.51476E+00
 -1      2011 4.61795E+03 1.41320E+01-4.15505E+00 9.06053E+02 1.47608E+01 6.49449E+00
 -1      2012-4.26736E+03-1.62178E+02 6.24895E+00-5.10597E+02-1.77258E+01 6.22184E+00
 -1      2013 8.87949E+02 4.94157E+02-1.67190E+00 7.13333E+02-5.15247E-03 3.71347E-01
 -1      2014-3.49607E+03-2.00975E+02-8.61015E-02-7.00821E+02-5.79125E+00 7.48430E+00
 -1      2015 1.14127E+03 5.41081E+02-2.48406E+00 8.38213E+02-7.02787E-01-7.30215E-01
 -1      2016 1.88502E+03 5.58685E+02 2.20132E-01 1.09320E+03 3.45316E+00 7.01488E-01
 -1      2017 5.08928E+02 4.15529E+02-3.20495E+00 5.23364E+02 8.37170E-01 2.44990E+00
 -1      2018-1.12836E+03-6.32059E+01-2.07496E+00-3.49471E+02 1.93090E+00 4.55831E+00
 -1      2019-1.52407E+03-1.45821E+02-9.30094E-01-5.04313E+02-1.34749E-01 3.81535E+00
 -1      2020-2.34730E+02-1.33813E+02 4.02862E+00 3.07637E+02 1.36496E+01 4.27969E+00
 -1      2021 5.01036E+03-1.33695E+02-5.86406E+00 5.84901E+02 2.34019E+01 2.54350E+01
 -1      2022-2.68939E+03-1.82104E+02 2.22548E+02-2.84500E+02 1.07872E+02-1.59384E+01
 -1      2023-1.99559E+03-2.14008E+02-4.16406E-01-6.47042E+02-4.88393E-01 6.45089E+00
 -1      2024-1.83572E+03-1.91693E+02-2.75344E+00-6.06893E+02-2.24477E+00 2.48092E+00
 -1      2025-2.09930E+02 1.65774E+02 2.18769E+00 2.73565E+02 8.78193E-01 9.29540E-01
 -1      2026 2.80362E+03 4.68186E+02 1.59155E-01 1.25776E+03 7.33861E+00 1.49891E+00
 -1      2027-1.84047E+02 2.90186E+02 9.26351E-01 2.04964E+02 5.68870E-01-9.40676E-01
 -1      2028-1.89189E+02 2.80991E+02-1.01238E+00 1.95771E+02-1.05156E+00 1.04646E+00
 -1      2029-1.95075E+02 2.63688E+02 5.71329E-02 2.04909E+02-6.30647E-01 6.79629E-01
 -1      2030-1.98512E+02 2.59938E+02 1.97603E+00 2.15375E+02-6.89240E-01 5.85847E-01
 -1      2031-1.97426E+02 2.55711E+02 8.90917E-01 2.18262E+02 1.17290E+00 4.69639E-01
 -1      2032-1.89543E+02 2.83426E+02 1.05884E+00 2.01963E+02 7.34524E-01 1.02741E+00
 -1      2033-1.84968E+02 2.76497E+02 1.02938E+00 2.06655E+02-1.25637E+00 1.34147E+00
 -1      2034-2.14672E+02 1.98839E+02-8.99239E-01 2.43795E+02 4.25272E-01 1.22508E+00
 -1      2035-2.01391E+02 2.38747E+02 1.32350E+00 2.23756E+02-1.27729E-01 1.12394E+00
 -1      2036-2.12560E+02 1.83522E+02-5.34510E-01 2.61801E+02-2.07851E+00 2.37438E+00
 -1      2037-2.42234E+02-4.76762E-01 2.89597E+00 3.14656E+02-2.29954E+00 1.96488E+00
 -1      2038-2.50563E+02-2.32687E+01-1.63951E+00 3.27153E+02 4.37485E-01 2.57345E+00
 -1      2039-2.60459E+02-5.75047E+01 6.37376E-01 3.25476E+02-1.15218E+00 2.36506E+00
 -1      2040-2.51849E+02-9.47589E+01-3.15885E-03 3.28937E+02-1.97558E+00 2.08479E+00
 -1      2041-1.86640E+02 2.71342E+02 2.73992E-01 2.07695E+02 1.14032E+00-1.55103E+00
 -1      2042-2.52151E+02 2.48490E+01-1.85106E+00 3.11396E+02 2.62090E-01 2.99466E+00
 -1      2043-2.03078E+02 2.48700E+02 1.83292E+00 2.20721E+02-2.98963E-01 1.35229E+00
 -1      2044-2.36196E+02 9.25295E+01 1.60353E+00 2.91651E+02 2.04617E-01 3.13077E+00
 -1      2045-2.40075E+02 7.22419E+01 1.42348E+00 2.98333E+02-7.48405E-01 1.29212E+00
 -1      2046-2.51399E+02 4.91895E+01-2.39127E+00 3.06117E+02-1.68436E+00 1.17667E+00
 -1      2047-1.85501E+02 2.75907E+02-5.50886E-01 1.99855E+02-8.80495E-03-9.49622E-01
 -1      2048-2.42390E+02 1.09408E+02-1.37287E+00 2.83158E+02 3.97685E-01 2.61864E+00
 -1      2049-2.08897E+02 1.85349E+02 1.78664E+00 2.51709E+02-5.04184E-01 2.27767E+00
 -1      2050-2.13964E+02 2.11022E+02 6.34313E-01 2.39942E+02-7.55570E-01 1.25265E+00
 -1      2051-2.05326E+02 2.34612E+02 6.83686E-02 2.30056E+02 2.16042E+00 9.30971E-01
 -1      2052 2.62192E+03 5.00462E+02-2.01383E+00 1.24450E+03 3.12213E+00-1.23603E+00
 -1      2053-2.38391E+02 1.27773E+02-1.43004E+00 2.77333E+02-1.32302E+00 1.32332E+00
 -1      2054-2.06056E+02 2.62310E+02-4.12416E+00 1.91928E+02 3.74098E-01-3.11043E-01
 -1      2055 4.92548E+03-2.91852E+02-7.15387E+01 2.43405E+02 5.78689E+01 1.11298E+02
 -1      2056 3.12453E+01 2.88792E+02 3.11136E+00 2.46561E+02 4.24851E-01 1.54122E-01
 -1      2057-2.53717E+02-2.08498E+02 8.53391E+00 5.43250E+01 1.07303E+02 2.63781E+01
 -1      2058-6.66814E+03 1.88854E+02 6.68672E+02-3.17205E+02 7.72551E+01-2.22781E+01
 -1      2059 7.02271E+03-3.72856E+02-6.40004E+02-7.13644E+01 1.29717E+02-1.08215E+00
 -1      2060-1.40149E+02 1.40343E+02-3.54379E+00 1.05032E+02-3.46028E-01-2.13701E+00
 -1      2061-1.58604E+01 2.12187E+02 5.11654E+00 1.58926E+02 3.34991E+00 2.45393E+00
 -1      2062-1.94302E+02 3.00091E+02 2.69155E+00 2.05768E+02-2.06856E+00 1.33868E-01
 -1      2063 1.06071E+04 1.30645E+03 1.29151E+03 5.45565E+02-1.96186E+02-1.48343E+03
 -1      2064 6.49957E+03 6.72580E+02 1.27889E+02-5.26360E+02 1.13157E+02-8.32216E+02
 -1      2065 8.39404E+03-5.49778E+02-4.96969E+02-2.22792E+02 2.45373E+02 1.95185E+02
 -1      2066-6.78363E+03-1.19853E+03-7.83986E+02-5.28929E+02-4.07663E+01 9.20896E+02
 -1      2067-9.49221E+03-1.47105E+03-1.24255E+03 1.16504E+02-1.48524E+02 1.06559E+03
 -1      2068-7.31372E+03 5.26263E+02 5.52250E+02-6.30200E+02 2.48628E+02-3.12974E+02
 -1      2069-1.00137E+02 1.44528E+02 8.78052E+00 1.89335E+02 3.18918E+00-6.65025E+00
 -1      2070 2.42624E+01 1.29065E+02 8.84495E+00 1.36554E+02 6.79918E+00 2.33705E+00
 -1      2071 1.78247E+02 1.58877E+02 1.44937E-01 1.61353E+02-3.49153E+00 9.03905E+00
 -1      2072-7.19724E+01 1.18986E+02-9.54514E+00 6.56914E+01 1.22916E+00-5.42398E+00
 -1      2073-1.03325E+02 2.44980E+02-7.38660E+00 1.08759E+02 4.82195E+00 3.13298E+00
 -1      2074-1.53757E+02 2.09683E+01 1.82453E+00-9.59343E-01-8.94791E+00-1.12934E+00
 -1      2075 4.23147E+03 8.84095E+02 7.09243E+02-5.99656E+02 1.67172E+02-7.36553E+02
 -1      2076 9.12140E+02-2.41845E+02-3.38411E+02-8.11101E+02 1.56942E+02 2.45640E+01
 -1      2077 4.87787E+03-1.63376E+02-4.80943E+02-1.69397E+02 6.27343E+01-9.22344E+00
 -1      2078-1.64433E+03-2.05253E+02-8.41463E+01-8.14026E+02 1.05487E+02 1.63825E+02
 -1      2079-4.65349E+03-1.30918E+03-9.12581E+02-6.89302E+02 1.12285E+02 7.14727E+02
 -1      2080-9.57487E+01-1.64464E+02-5.13151E+00-2.51505E+02 7.70038E+01-1.12284E+01
 -1      2081-4.57415E+03 3.27750E+00 5.09693E+02-3.87040E+02 6.96339E+01 3.13184E+00
 -1      2082-1.46646E+02 2.51525E+02 4.42764E+00 1.79244E+02-1.51570E+00-5.02032E-03
 -1      2083-1.35550E+02 1.96526E+02 5.68485E+00 2.06186E+02 2.32593E+00 2.19411E+00
 -1      2084-1.02993E+02 2.48663E+02-2.04383E+00 1.89944E+02 2.73688E+00 3.17834E+00
 -1      2085-1.37903E+02 2.82673E+02-7.65502E+00 1.33878E+02-2.70950E+00 1.44746E+00
 -1      2086-1.57694E+02 2.44251E+02-6.16626E+00 1.75302E+02-3.09072E+00 2.65381E+00
 -1      2087-1.85794E+02 2.93327E+02 2.69913E+00 2.01913E+02 5.32962E+00 1.44442E+00
 -1      2088-1.71388E+02 2.23595E+02 5.29380E+00 1.46533E+02 2.99573E+00-3.06554E+00
 -1      2089 7.91538E+03-1.37229E+02-5.48637E+01 4.44327E+02 2.65879E+01 4.90670E+01
 -1      2090 7.92285E+03-7.06739E+01 5.41074E+01 1.45148E+02-3.97614E+01 3.14457E+01
 -1      2091 5.76763E+03-2.97174E+02-1.12421E+02 3.32679E+01 8.11081E+01 1.04176E+02
 -1      2092 7.86247E+03-2.95998E+01 1.42756E+00 7.84053E+02 1.45901E+01 2.53811E+01
 -1      2093 7.95299E+03-6.85381E+01-1.14148E+01 6.08986E+02 1.33586E+01 1.09734E+01
 -1      2094 4.96131E+03-2.00643E+02-8.60767E+00 4.28017E+02 2.96480E+01 2.95403E+01
 -1      2095 7.58590E+03 4.63781E+01 3.14224E+00 1.01426E+03 1.17575E+01 1.49280E+01
 -1      2096 7.77068E+03 1.27374E+01 2.87987E+00 8.81679E+02 1.05500E+01 1.79296E+01
 -1      2097 4.95807E+03-7.73316E+01 1.47500E+00 6.94254E+02 1.91695E+01 1.73716E+01
 -1      2098 7.26018E+03 1.23086E+02-8.84099E+00 1.18428E+03 5.41770E+00 3.41233E+00
 -1      2099 7.47450E+03 8.98160E+01 4.67033E+00 1.08982E+03 1.54494E+01 1.77602E+01
 -1      2100 4.75985E+03 3.42970E+00 4.15121E+00 8.52624E+02 1.88690E+01 1.12642E+01
 -1      2101 6.90392E+03 1.78348E+02 1.59210E+00 1.32442E+03 7.08575E+00 9.08022E+00
 -1      2102 7.11698E+03 1.35655E+02-3.75825E+00 1.23891E+03 7.42924E+00 6.80320E+00
 -1      2103 4.49358E+03 4.11843E+01-3.05960E+00 9.50376E+02 1.24008E+01-1.50365E-01
 -1      2104 6.56813E+03 2.49023E+02-7.65459E+00 1.43567E+03 4.44704E+00 5.00157E+00
 -1      2105 6.78573E+03 2.13118E+02-2.14384E+00 1.36832E+03 1.12398E+01 1.15577E+01
 -1      2106 4.28784E+03 1.20046E+02 2.38660E-01 1.04132E+03 9.35558E+00 4.41299E+00
 -1      2107 6.22996E+03 3.08178E+02 2.60117E+00 1.53115E+03 5.50031E+00 8.71588E+00
 -1      2108 6.44388E+03 2.66812E+02-2.04098E+00 1.47440E+03 7.89702E+00 5.24814E+00
 -1      2109 4.05356E+03 1.54500E+02-3.69788E+00 1.10393E+03 1.26669E+01-1.23530E+00
 -1      2110 5.89873E+03 3.73787E+02-7.40357E+00 1.58981E+03 6.79212E+00 7.51228E-01
 -1      2111 6.11634E+03 3.42023E+02-2.61154E+00 1.55594E+03 9.11596E+00 1.09416E+01
 -1      2112 3.85752E+03 2.26086E+02-1.68626E+00 1.16078E+03 6.47382E+00 4.25076E+00
 -1      2113 5.57491E+03 4.37848E+02-2.86871E+00 1.65356E+03 3.20950E+00 3.28087E+00
 -1      2114 5.78100E+03 4.04504E+02-2.54617E+00 1.62068E+03 7.86504E+00 7.24610E+00
 -1      2115 3.63709E+03 2.61138E+02-3.81624E+00 1.19545E+03 1.17595E+01-7.35957E-01
 -1      2116 5.25117E+03 4.85714E+02 9.89223E-01 1.68425E+03 5.15209E+00 7.19925E+00
 -1      2117 5.45340E+03 4.49988E+02-1.17769E+00 1.66459E+03 5.92612E+00 4.73173E+00
 -1      2118 3.42168E+03 3.13884E+02-2.33260E+00 1.22649E+03 9.13400E+00-8.61018E-01
 -1      2119 4.93544E+03 5.33617E+02 2.06300E+00 1.70078E+03 5.25100E+00 9.30798E+00
 -1      2120 5.14347E+03 5.08174E+02-1.15113E-01 1.69136E+03 8.32374E+00 7.85090E+00
 -1      2121 3.23415E+03 3.72385E+02-1.92361E+00 1.24536E+03 4.75920E+00 5.60690E-01
 -1      2122 4.63355E+03 5.79499E+02-5.94838E+00 1.69538E+03 4.69199E+00 3.11200E-01
 -1      2123 4.83252E+03 5.59839E+02-3.19947E+00 1.70180E+03 6.80584E+00 9.27228E+00
 -1      2124 3.03798E+03 4.12637E+02-1.09336E+00 1.24893E+03 5.45714E+00 4.09945E+00
 -1      2125 4.36771E+03 6.20394E+02 3.65449E+00 1.70156E+03 6.40395E+00 7.51042E+00
 -1      2126 4.56777E+03 6.05345E+02 2.67629E+00 1.70991E+03 7.07303E+00 7.73984E+00
 -1      2127 2.87151E+03 4.38309E+02-2.31427E+00 1.25208E+03 8.14322E+00-1.59013E+00
 -1      2128 4.08364E+03 6.48048E+02-2.41387E+00 1.67736E+03 3.62396E+00 7.66616E+00
 -1      2129 4.26752E+03 6.35122E+02 1.50399E+00 1.69508E+03 7.34768E+00 6.83760E+00
 -1      2130 2.71533E+03 4.86176E+02-1.75963E+00 1.25355E+03 8.17850E+00 4.21034E-01
 -1      2131 3.79379E+03 6.73748E+02-2.91098E+00 1.63725E+03 3.55082E+00 2.18724E+00
 -1      2132 3.97698E+03 6.61692E+02-3.26657E+00 1.66317E+03 5.22775E+00 7.13580E+00
 -1      2133 2.52746E+03 5.15887E+02-7.66854E-01 1.23275E+03 1.75960E+00 1.16568E-01
 -1      2134 3.51218E+03 6.90025E+02 2.60925E+00 1.59571E+03 4.22788E+00 7.39225E+00
 -1      2135 3.68690E+03 6.83507E+02 4.38737E+00 1.62202E+03 6.23196E+00 4.78340E+00
 -1      2136 2.32612E+03 5.25044E+02-8.41476E-01 1.19611E+03 5.11404E+00-2.44152E+00
 -1      2137 3.23809E+03 6.94942E+02 6.41667E-01 1.53604E+03 4.20363E+00 7.77394E+00
 -1      2138 3.41224E+03 6.94434E+02 2.06278E-01 1.57201E+03 5.91675E+00 6.50161E+00
 -1      2139 2.13144E+03 5.47719E+02-7.17851E-01 1.15859E+03 3.25994E+00 1.17980E+00
 -1      2140 2.98920E+03 6.97031E+02 2.03938E+00 1.47545E+03 4.82278E+00 7.12171E+00
 -1      2141 3.15823E+03 7.02572E+02 3.44010E-01 1.51548E+03 5.73516E+00 7.14472E+00
 -1      2142 1.96383E+03 5.60290E+02 1.57363E+00 1.11806E+03 2.44017E+00 2.16638E+00
 -1      2143 2.75032E+03 6.97449E+02-4.40006E+00 1.41020E+03 2.01498E+00 5.18462E+00
 -1      2144 2.90729E+03 7.09346E+02 1.88436E+00 1.45707E+03 8.92648E+00 8.19164E+00
 -1      2145 1.81318E+03 5.71384E+02 2.96628E+00 1.08069E+03 6.61361E+00 3.65137E+00
 -1      2146 2.51602E+03 6.85189E+02 3.23194E+00 1.33869E+03 5.05289E+00 7.17357E+00
 -1      2147 2.67216E+03 6.91471E+02 2.49660E+00 1.38588E+03 3.27184E+00-1.11364E-01
 -1      2148 1.65440E+03 5.53821E+02-2.11022E+00 1.02696E+03 2.37040E+00-1.76741E-01
 -1      2149 2.28239E+03 6.65844E+02 1.62829E+00 1.25573E+03 4.66804E+00 6.20948E+00
 -1      2150 2.43356E+03 6.85196E+02-5.62538E-01 1.30801E+03 6.12206E+00 6.28255E+00
 -1      2151 1.50092E+03 5.63817E+02 2.13962E-02 9.78129E+02 3.58311E+00 3.29178E+00
 -1      2152 2.06224E+03 6.45488E+02 1.49005E+00 1.17316E+03 3.46810E+00 5.80192E+00
 -1      2153 2.20707E+03 6.65839E+02 1.63451E+00 1.22844E+03 6.31054E+00 6.33557E+00
 -1      2154 1.34924E+03 5.55517E+02-9.39533E-01 9.22422E+02 5.45172E+00 7.85848E-01
 -1      2155 1.85147E+03 6.18896E+02-4.29018E+00 1.08923E+03 2.72332E-01 4.50528E+00
 -1      2156 1.98544E+03 6.41933E+02-7.42854E-01 1.14448E+03 4.81887E+00 5.90011E+00
 -1      2157 1.21066E+03 5.47537E+02-6.06579E-02 8.67278E+02 2.99735E+00 4.84397E-01
 -1      2158 1.64722E+03 5.89160E+02 4.89855E+00 1.00134E+03 2.45137E+00 6.60635E+00
 -1      2159 1.77878E+03 6.07597E+02 3.27092E+00 1.05794E+03 2.51506E+00-3.53950E-01
 -1      2160 1.07263E+03 5.28610E+02-6.32524E-01 8.04437E+02-1.19855E+00-2.07946E+00
 -1      2161 1.44780E+03 5.49701E+02-2.38317E+00 9.03009E+02 1.25861E-01-5.86009E-01
 -1      2162 1.57949E+03 5.78742E+02-4.51251E+00 9.66356E+02 2.30140E+00 6.43710E+00
 -1      2163 9.45863E+02 5.11743E+02-1.21351E+00 7.47335E+02-5.61544E-01 3.68993E+00
 -1      2164 1.25172E+03 5.12780E+02-9.95936E-02 8.16802E+02 4.82940E-01 3.83651E+00
 -1      2165 1.37366E+03 5.41336E+02 1.55507E+00 8.74183E+02 3.68895E+00 2.79080E+00
 -1      2166 8.14471E+02 4.85086E+02-2.48856E-01 6.85433E+02 1.60547E+00-1.91394E+00
 -1      2167 1.06239E+03 4.64893E+02 5.10450E+00 7.19272E+02 3.07443E+00 4.02987E+00
 -1      2168 1.18618E+03 4.92513E+02 2.50879E+00 7.80242E+02 1.18145E+00-9.16559E-02
 -1      2169 6.86330E+02 4.65180E+02 2.26391E+00 6.18865E+02-9.91338E-01-7.29033E-01
 -1      2170 8.72845E+02 4.16804E+02-5.22413E+00 6.18793E+02-1.66170E+00 1.07337E+00
 -1      2171 9.96188E+02 4.54823E+02-1.08127E+00 6.83885E+02 5.04150E+00 6.40971E+00
 -1      2172 5.70326E+02 4.38709E+02 9.29410E-01 5.59577E+02 3.65933E+00 2.88476E+00
 -1      2173 6.95031E+02 3.68305E+02 1.46507E+00 5.25334E+02 2.13633E+00 4.55890E+00
 -1      2174 8.12938E+02 3.95833E+02 3.87374E+00 5.85105E+02 2.07990E+00 2.00969E+00
 -1      2175 4.43836E+02 3.99329E+02 2.04683E+00 4.90471E+02 4.62327E-01-2.63055E+00
 -1      2176 5.19819E+02 3.15111E+02-8.56033E-01 4.23344E+02-5.02558E-01-1.01144E-01
 -1      2177 6.33478E+02 3.50026E+02-3.72606E+00 4.88521E+02 1.94969E+00 4.37110E+00
 -1      2178 3.29557E+02 3.77740E+02 8.34004E-01 4.27143E+02-9.92088E-01 1.97417E+00
 -1      2179 3.52629E+02 2.62630E+02 1.73393E+00 3.25816E+02 9.48474E-01 1.11957E+00
 -1      2180 4.59164E+02 2.97452E+02 2.03776E+00 3.89434E+02 1.07552E+00 1.19183E+00
 -1      2181 2.19702E+02 3.37322E+02-4.30873E-01 3.64046E+02-3.31711E-01-3.49693E+00
 -1      2182 1.76367E+02 2.02798E+02-7.82828E-02 2.22054E+02 5.41432E-01-7.08111E-01
 -1      2183 2.74322E+02 2.41202E+02 3.02394E+00 2.82471E+02 2.57770E-01 2.14465E-02
 -1      2184 9.89908E+01 3.07888E+02-2.00565E+00 2.88227E+02-1.18845E+00-9.88435E-01
 -1      2185 2.15247E+01 2.48959E+02 4.45262E+00 2.06894E+02 9.22635E-01 3.38864E+00
 -1      2186-7.10891E+03-1.52734E+02-1.09228E+02-3.59637E+02-6.66499E+01-9.38618E+01
 -1      2187-7.07106E+03-3.31197E+00 8.27352E+01-3.64073E+02 2.72952E+01-8.87404E+01
 -1      2188-5.46740E+03 9.44416E+01 1.47051E+02-3.20270E+02 6.19119E+01-1.54922E+02
 -1      2189-7.17458E+03-8.46630E+01 2.72640E-01-3.73404E+02-1.48225E+01-1.88427E+01
 -1      2190-7.09005E+03-8.90396E+01 7.82473E+00-4.66692E+02 2.46752E-01-1.41319E+01
 -1      2191-4.90052E+03-1.09767E+02 6.18815E+00-1.49685E+02 5.26799E+00-3.83884E+01
 -1      2192-7.04782E+03-1.06957E+02-8.11883E+00-5.30446E+02-1.22212E+01 5.16282E+00
 -1      2193-6.90167E+03-1.28071E+02-2.81141E+00-6.31270E+02-7.25521E+00-1.44450E+00
 -1      2194-4.91515E+03-1.49994E+02-1.53715E+01-1.94084E+02-1.46669E+01-5.34596E+00
 -1      2195-6.79731E+03-1.33676E+02 4.52394E+00-6.86469E+02-1.06764E+01 3.19812E+00
 -1      2196-6.62639E+03-1.59489E+02-2.85540E+00-7.73505E+02-9.87560E+00 8.20636E+00
 -1      2197-4.76041E+03-1.30068E+02-6.96263E-01-2.85672E+02-1.10373E+01 4.45908E+00
 -1      2198-6.50938E+03-1.68709E+02-1.10939E+01-8.25274E+02-1.16182E+00 4.88838E+00
 -1      2199-6.33913E+03-1.90871E+02-2.84429E+00-8.97665E+02-1.02190E+01 1.41683E+00
 -1      2200-4.56274E+03-1.42710E+02-5.99433E+00-3.78813E+02-1.17108E+01 1.04184E+01
 -1      2201-6.22999E+03-2.00530E+02 1.10794E+01-9.46903E+02-1.33909E+01 4.87720E+00
 -1      2202-6.03483E+03-2.14634E+02 4.93591E+00-1.00926E+03-9.51750E+00 4.90468E+00
 -1      2203-4.34671E+03-1.46423E+02 2.11982E+00-4.63978E+02-1.77115E+01 3.87983E+00
 -1      2204-5.94193E+03-2.36897E+02-6.44375E+00-1.04771E+03-6.56674E+00 5.69414E+00
 -1      2205-5.76788E+03-2.60089E+02-1.08537E+00-1.09969E+03-3.60799E+00 4.30041E+00
 -1      2206-4.15825E+03-1.57419E+02-3.96691E+00-5.35078E+02-1.21127E+01 7.20728E+00
 -1      2207-5.66201E+03-2.73396E+02-7.78616E+00-1.13975E+03-6.37034E+00 9.97441E+00
 -1      2208-5.48190E+03-2.94959E+02-2.12824E+00-1.17349E+03-7.47241E+00-3.32685E-01
 -1      2209-3.96840E+03-1.88800E+02-7.37494E+00-6.01233E+02-1.22763E+01 1.07209E+01
 -1      2210-5.38379E+03-3.13827E+02 2.22371E+00-1.19650E+03-4.49363E+00 6.01080E-01
 -1      2211-5.20205E+03-3.35170E+02-3.40764E-01-1.22905E+03-7.35560E+00 2.17250E+00
 -1      2212-3.76384E+03-1.78570E+02-4.39110E-01-6.44771E+02-8.23271E+00 3.18555E+00
 -1      2213-5.10251E+03-3.45056E+02 2.15945E+00-1.24464E+03-4.01491E+00 1.00766E+00
 -1      2214-4.92719E+03-3.64810E+02 3.30214E+00-1.26909E+03-5.31781E+00 3.34248E+00
 -1      2215-3.57892E+03-1.91193E+02-1.88413E+00-6.81806E+02-6.92056E+00 5.94218E+00
 -1      2216-4.82686E+03-3.74815E+02-3.77167E+00-1.28435E+03-3.09963E+00 8.78176E+00
 -1      2217-4.66499E+03-4.00661E+02-5.47561E+00-1.29431E+03-1.82510E+00 3.80359E+00
 -1      2218-3.39424E+03-2.15479E+02-3.50240E+00-7.14289E+02-6.58681E+00 8.71226E+00
 -1      2219-4.56219E+03-4.04140E+02-7.07299E+00-1.30648E+03-3.99054E-01 5.38374E+00
 -1      2220-4.39173E+03-4.15162E+02-2.89359E+00-1.30609E+03-5.68195E+00-1.80402E+00
 -1      2221-3.21592E+03-2.25689E+02-2.71700E-01-7.33242E+02-8.17949E+00 9.49076E+00
 -1      2222-4.30628E+03-4.28950E+02 5.40496E+00-1.31161E+03-3.76920E+00 5.30680E-01
 -1      2223-4.14277E+03-4.46178E+02 7.59400E-01-1.30867E+03-3.73569E+00 6.76552E+00
 -1      2224-3.02897E+03-2.19544E+02-9.37777E-02-7.40962E+02-4.61272E+00 1.87426E+00
 -1      2225-4.04316E+03-4.49238E+02-6.42928E+00-1.30586E+03 1.05186E+00 1.90747E+00
 -1      2226-3.88659E+03-4.56252E+02-1.34501E+00-1.29434E+03-4.20918E+00-1.94808E-01
 -1      2227-2.86804E+03-2.30097E+02-3.00833E+00-7.47969E+02-2.22755E+00 8.56834E+00
 -1      2228-3.80089E+03-4.64319E+02 5.59651E-01-1.29516E+03-2.35090E+00 4.51021E-01
 -1      2229-3.64194E+03-4.67143E+02-1.71589E-01-1.27555E+03-7.76042E+00-5.09649E-01
 -1      2230-2.69172E+03-2.26803E+02-1.53922E+00-7.38582E+02-4.69161E+00 4.15688E+00
 -1      2231-3.54125E+03-4.70685E+02 8.45382E+00-1.26350E+03-6.48263E+00 1.55101E+00
 -1      2232-3.38323E+03-4.74058E+02 1.29605E+00-1.23830E+03-1.84459E+00 5.59832E+00
 -1      2233-2.52074E+03-2.29554E+02 3.27480E+00-7.26850E+02-9.36826E+00 3.23912E+00
 -1      2234-3.30189E+03-4.69270E+02-1.60646E+00-1.22212E+03 9.76875E-02 2.89424E-01
 -1      2235-3.15588E+03-4.67422E+02 1.54858E+00-1.19690E+03-3.24678E+00 9.57664E-01
 -1      2236-2.35113E+03-2.21432E+02 1.15392E+00-7.01371E+02-2.53407E+00 4.65560E+00
 -1      2237-3.06427E+03-4.65511E+02-4.05107E-01-1.18436E+03-8.20705E-01 6.95818E+00
 -1      2238-2.92434E+03-4.60985E+02-2.95105E+00-1.14995E+03-1.40128E+00 5.30511E+00
 -1      2239-2.19420E+03-2.24636E+02-3.45796E+00-6.73325E+02-3.88445E+00 5.30770E+00
 -1      2240-2.85569E+03-4.64282E+02-1.70661E+00-1.14071E+03-4.56456E-01 4.36041E+00
 -1      2241-2.72111E+03-4.64530E+02-3.96546E-01-1.10464E+03 8.78827E-01 2.93308E+00
 -1      2242-2.04825E+03-2.08884E+02-4.10343E+00-6.54328E+02 2.35182E+00 5.24188E+00
 -1      2243-2.63577E+03-4.51097E+02-5.58837E+00-1.08323E+03 1.39919E+00 1.81147E+00
 -1      2244-2.49857E+03-4.36337E+02-4.50656E-02-1.04059E+03-5.48259E+00-1.76360E+00
 -1      2245-1.91777E+03-2.06073E+02-5.23957E-01-6.26863E+02-3.31325E+00 6.45401E+00
 -1      2246-2.41025E+03-4.29542E+02 4.25159E+00-1.00892E+03-3.44632E+00-1.62497E+00
 -1      2247-2.27001E+03-4.11144E+02 4.78895E+00-9.65319E+02-2.49424E+00 1.86115E+00
 -1      2248-1.75132E+03-1.75319E+02 1.94038E+00-5.76589E+02-5.38358E+00 1.29912E+00
 -1      2249-2.19915E+03-4.04385E+02-2.29999E+00-9.43402E+02-1.33883E+00 5.98292E-01
 -1      2250-2.06933E+03-3.86731E+02-1.59134E+00-8.93181E+02-9.47026E-01-1.38770E+00
 -1      2251-1.59593E+03-1.53192E+02-1.66726E+00-5.28458E+02 1.44842E+00 3.55367E+00
 -1      2252-1.99832E+03-3.75737E+02-6.45073E-01-8.66653E+02-1.74579E-01-2.28914E+00
 -1      2253-1.87197E+03-3.54294E+02 2.66402E+00-8.17459E+02-3.51611E+00-1.34721E+00
 -1      2254-1.46022E+03-1.28251E+02 7.16262E-01-4.77869E+02 1.47417E+00 2.87675E+00
 -1      2255-1.80309E+03-3.42336E+02 4.05248E+00-7.89433E+02-2.54824E+00-2.19040E+00
 -1      2256-1.67337E+03-3.15809E+02 3.96832E+00-7.35699E+02-1.79809E+00 1.05876E+00
 -1      2257-1.33293E+03-1.07219E+02-8.20794E-01-4.29905E+02-2.43682E+00 3.75525E+00
 -1      2258-1.60505E+03-3.05146E+02-2.76922E+00-7.09567E+02 1.15963E-01-6.49652E-03
 -1      2259-1.49002E+03-2.78770E+02 2.03795E-01-6.53176E+02-2.28368E+00-1.24466E+00
 -1      2260-1.19523E+03-7.83945E+01-2.48500E+00-3.78822E+02 2.83822E+00 3.55861E+00
 -1      2261-1.42184E+03-2.65032E+02 1.53202E+00-6.24592E+02-1.61957E+00-2.83771E+00
 -1      2262-1.30171E+03-2.33281E+02 9.94264E-01-5.66800E+02-4.62715E+00-2.95199E+00
 -1      2263-1.07178E+03-4.74261E+01 1.14773E+00-3.23299E+02-1.86773E+00 3.08196E+00
 -1      2264-1.23931E+03-2.23021E+02 2.49231E+00-5.36790E+02-2.86935E+00-3.69793E+00
 -1      2265-1.11521E+03-1.88511E+02 8.10288E-01-4.78128E+02-2.47725E+00-3.61888E+00
 -1      2266-9.47332E+02-1.72068E+01 1.07378E+00-2.67092E+02-3.54504E+00 1.35470E+00
 -1      2267-1.05657E+03-1.71179E+02 1.90639E+00-4.42930E+02-1.63839E+00-4.58582E+00
 -1      2268-9.37314E+02-1.38108E+02 5.81459E+00-3.84421E+02-1.68431E+00 1.88314E+00
 -1      2269-8.27176E+02 1.67781E+01 9.69887E-01-2.09095E+02 1.89742E-01-1.72550E+00
 -1      2270-8.73615E+02-1.22414E+02-2.84743E+00-3.55560E+02-1.49338E-01-7.30596E-01
 -1      2271-7.65836E+02-8.80880E+01 1.02857E+00-2.93631E+02-2.60150E+00-2.72692E+00
 -1      2272-7.03033E+02 5.17208E+01-1.36830E+00-1.50547E+02 2.79376E+00 2.20304E+00
 -1      2273-7.02929E+02-7.24010E+01 2.13177E+00-2.61163E+02-1.82310E+00-4.14256E+00
 -1      2274-5.86088E+02-3.39185E+01-1.80513E-02-1.98373E+02-3.37751E+00-3.59585E+00
 -1      2275-5.91007E+02 8.52495E+01 1.61375E+00-8.79930E+01-2.22680E+00 1.43424E+00
 -1      2276-5.26540E+02-1.93538E+01 9.34262E-01-1.65605E+02-2.19257E+00-4.05450E+00
 -1      2277-4.12646E+02 1.67315E+01 1.31125E+00-1.03435E+02-3.29413E+00-1.47935E+00
 -1      2278-4.73762E+02 1.21009E+02 6.64991E-02-2.58522E+01-5.23973E-01-4.42041E-01
 -1      2279-3.42748E+02 3.42471E+01 2.39267E+00-6.06852E+01-7.32800E-01-2.44464E+00
 -1      2280-2.32990E+02 6.03409E+01 4.52907E+00-7.55679E+00 7.20545E-01 6.67555E-02
 -1      2281-3.52240E+02 1.54684E+02 5.85864E-01 4.35939E+01-1.10714E+00 6.15114E-01
 -1      2282-2.18936E+02 1.46378E+02-2.86972E+00 8.36842E+01-1.41836E+00-3.19066E+00
 -1      2283 5.33415E+02 4.02423E+02 2.73344E-01 5.62178E+02-8.60841E-01-9.56986E-01
 -1      2284 6.00195E+02 4.04734E+02 3.66648E+00 5.89068E+02-1.40630E+00-3.14085E+00
 -1      2285 4.68865E+02 3.99539E+02 1.08300E+00 5.32869E+02-8.47035E-01-2.48783E+00
 -1      2286 5.34051E+02 4.04783E+02 1.76972E+00 5.58309E+02-1.21991E+00-1.96999E+00
 -1      2287-2.01931E+02 2.46798E+02 3.36391E+00 2.25693E+02-3.60823E-01 7.59506E-01
 -1      2288 2.18133E+02 3.64907E+02-1.04844E+00 3.99246E+02-6.72223E-01-1.89975E+00
 -1      2289 2.76772E+02 3.81158E+02 2.48409E+00 4.30130E+02-2.44541E-01-2.80448E-01
 -1      2290 2.76340E+02 3.75212E+02 7.25684E-01 4.31778E+02 2.16698E+00-2.69737E+00
 -1      2291 3.38546E+02 3.81790E+02 7.34352E-01 4.59752E+02 2.37843E+00 1.31167E+00
 -1      2292-1.92255E+02 2.73468E+02 3.13091E+00 2.11358E+02-4.53688E-01-1.20907E+00
 -1      2293-4.79352E+02 1.58796E+02 9.82630E-01 1.22841E+01 1.82201E+00 2.04604E+00
 -1      2294-4.21361E+02 1.80483E+02 3.28174E+00 4.63376E+01 2.30875E+00 1.07333E+00
 -1      2295-5.36432E+02 1.41765E+02 2.06690E-01-1.51007E+01 8.56414E-01 4.17994E+00
 -1      2296-4.80352E+02 1.62747E+02 1.85407E+00 1.45057E+01 9.11622E-01 2.67353E+00
 -1      2297-1.93225E+02 2.78496E+02 8.97583E-01 2.04189E+02-3.78082E-01 1.11423E+00
 -1      2298-1.64963E+01 3.07875E+02 2.30504E-01 2.69283E+02 1.75447E+00-1.54289E+00
 -1      2299 3.80891E+01 3.22578E+02 2.23292E+00 2.97792E+02 6.31639E-01 1.26239E-01
 -1      2300-1.88289E+02 2.87183E+02 3.16126E+00 2.03056E+02-2.73343E-01-4.06383E-01
 -1      2301-1.35810E+01 3.12366E+02 3.39834E+00 2.67685E+02-3.98743E-01 2.12012E+00
 -1      2302-7.61908E+01 2.92043E+02 1.17193E-01 2.28718E+02 5.57449E-01-5.84717E-01
 -1      2303 6.92193E+02 4.03917E+02 3.73119E+00 6.21422E+02 2.49728E+00 1.13723E+00
 -1      2304 7.39395E+02 3.91249E+02 2.08592E-02 6.39542E+02 1.60877E+00 7.16540E-01
 -1      2305-2.18802E+02 2.18920E+02 2.32306E-01 2.38168E+02 1.39610E-01-1.94604E-01
 -1      2306 7.59163E+02 3.93025E+02 4.31768E+00 6.54120E+02 7.12538E-01-1.17979E-01
 -1      2307 8.31921E+02 3.92382E+02 3.12400E+00 6.68956E+02 9.47915E-01-3.55872E+00
 -1      2308-8.01082E+02 7.46504E+01-6.05349E-01-1.15481E+02 1.57265E+00 5.62436E+00
 -1      2309-7.28088E+02 8.76840E+01 2.55219E+00-9.19407E+01 1.62511E+00 3.15783E+00
 -1      2310-7.34258E+02 8.02618E+01-7.93557E-01-9.64614E+01 4.71864E-01 1.48512E+00
 -1      2311-6.66359E+02 1.03771E+02 4.95563E+00-6.63852E+01 2.21738E+00 2.17258E+00
 -1      2312-1.96336E+02 2.61300E+02-1.47499E+00 2.18706E+02 5.30537E-01 1.09392E+00
 -1      2313 9.05128E+02 3.72048E+02 3.51831E-01 6.94376E+02-2.40371E-01-1.59493E+00
 -1      2314 9.97779E+02 3.76128E+02 3.25142E+00 7.18806E+02-3.99047E+00-2.88731E+00
 -1      2315 8.34081E+02 3.90661E+02-1.45793E+00 6.75642E+02 1.17848E-01-3.86958E+00
 -1      2316 9.08987E+02 3.88024E+02 3.28861E+00 6.95123E+02 1.07808E+00-1.33555E+00
 -1      2317-2.14999E+02 1.98745E+02-3.24004E-01 2.50069E+02 1.22249E+00 3.19408E+00
 -1      2318-2.46966E+03-8.25369E+01 2.73789E+00-2.45303E+00-5.97512E+00 7.46207E+00
 -1      2319-2.35166E+03-7.52701E+01 5.44232E+00-3.76449E+01 4.08329E-01 8.02115E+00
 -1      2320-2.35080E+03-7.28894E+01 4.06135E-01-4.62295E+01-4.18518E+00 4.96032E+00
 -1      2321-2.26543E+03-8.24107E+01 4.48670E+00-8.97788E+01-1.10362E+01 7.14774E+00
 -1      2322-2.41992E+02-2.76764E+01 4.32739E+00 3.33321E+02 4.68800E-01 3.89799E+00
 -1      2323 1.74839E+03 1.47828E+02 1.83988E+00 7.50561E+02 6.35067E-01 3.45882E-01
 -1      2324 1.84763E+03 1.33624E+02 1.39970E+00 7.32843E+02 1.08429E+00-8.15711E-01
 -1      2325 1.84752E+03 1.15610E+02 2.87447E-01 7.27576E+02 6.13090E-01 1.22757E+00
 -1      2326 1.95062E+03 7.77175E+01 4.12869E+00 7.00230E+02 2.47065E+00-1.27642E+00
 -1      2327-2.37750E+02 2.14041E+01 5.61845E-01 3.20291E+02-2.93786E-01 5.11251E+00
 -1      2328 2.19321E+03-2.12580E+01 7.00144E+00 6.23529E+02 4.94756E+00 3.24170E+00
 -1      2329 2.29415E+03-4.61571E+01 1.81921E+00 5.58983E+02 6.53137E+00-8.20151E-01
 -1      2330 2.41075E+03-1.02785E+02 1.33652E+01 4.62263E+02 1.64647E+01 1.15230E+01
 -1      2331 2.29888E+03-6.92305E+01 1.19837E+00 5.44901E+02 1.15220E+01-1.52306E-01
 -1      2332-2.37024E+02-1.16706E+02 4.25968E+00 3.17313E+02 2.96040E+00 3.21919E+00
 -1      2333-1.77760E+03-4.37019E+01-2.12075E+00-2.20665E+02-5.17631E+00 3.67724E+00
 -1      2334-1.69016E+03-5.79995E+01 1.08426E+00-2.30551E+02-4.74661E+00 2.52025E+00
 -1      2335-1.86572E+03-4.40519E+01-3.09014E-01-2.05900E+02-1.07283E+00 5.64853E+00
 -1      2336-1.76980E+03-4.77578E+01 4.01210E+00-2.13339E+02-1.21401E+00 4.41422E+00
 -1      2337-2.29112E+02 1.05290E+02 2.98447E-01 2.94030E+02 2.27858E-01 3.94686E+00
 -1      2338-1.58582E+03-3.40628E+01-8.85893E-01-2.34166E+02-3.17287E-01 5.71536E+00
 -1      2339-1.49034E+03-2.78552E+01 2.88073E+00-2.27991E+02 4.16133E+00 5.09298E+00
 -1      2340-2.01117E+02 1.61093E+02 4.35996E+00 2.82543E+02 8.90072E-01 2.66782E+00
 -1      2341-1.48833E+03-2.25758E+01 1.94477E+00-2.32177E+02 1.50928E+00 6.28368E+00
 -1      2342-1.41729E+03-2.40906E+01 3.53002E+00-2.30838E+02 5.05290E-01 5.73868E+00
 -1      2343-2.05698E+03-5.38022E+01 1.27728E+00-1.54553E+02-1.04711E+00 5.54690E+00
 -1      2344-1.96266E+03-4.75494E+01 3.65227E+00-1.74625E+02-3.91449E+00 7.32817E+00
 -1      2345-1.96119E+03-4.88816E+01 8.22598E-01-1.86314E+02-2.79490E+00 7.26192E+00
 -1      2346-1.87076E+03-4.51942E+01 4.04622E+00-1.96766E+02 1.53932E+00 6.89877E+00
 -1      2347-2.33039E+02 6.40265E+01-1.93799E-01 3.08220E+02-9.18333E-01 1.35039E-01
 -1      2348-2.55687E+03-1.40607E+02 1.00338E+01-4.76905E+00 4.25501E+01-1.86453E+01
 -1      2349-2.53702E+03-1.35124E+02-1.51728E+00 3.17604E+01 3.19202E+01-1.86029E+01
 -1      2350-2.54365E+03-1.32731E+02 6.82053E+01-7.86883E+01 7.40211E+01-4.74343E+01
 -1      2351-2.04036E+02-1.95088E+02 8.09828E+00 1.23568E+02 8.57122E+01 1.54304E+01
 -1      2352-1.49464E+03-2.43014E+02 1.26885E+01-1.38128E+02 1.38284E+02-1.88068E+00
 -1      2353-3.68093E+03 1.26819E+01 1.20148E+02-2.93983E+02 1.49973E+02-5.72146E+01
 -1      2354-9.36599E+02 4.19058E+01-1.48089E+00-1.61785E+02 6.43573E-01 4.66428E+00
 -1      2355-8.65132E+02 5.85698E+01 3.99718E+00-1.35477E+02-3.30152E-01 9.87026E-01
 -1      2356-1.02759E+03 2.33554E+01 1.19934E+00-1.82765E+02-1.06067E-01 3.40601E+00
 -1      2357-9.40741E+02 3.87624E+01 2.93592E+00-1.60287E+02-1.05904E+00 5.20873E+00
 -1      2358-1.98355E+02 2.35678E+02 1.48876E+00 2.24274E+02 2.30067E+00 1.01864E+00
 -1      2359 3.85503E+01 3.26392E+02 3.22758E-01 3.01364E+02-2.52702E+00-1.71860E+00
 -1      2360 9.27343E+01 3.44621E+02-9.47244E-01 3.32777E+02-4.96655E-01-1.55115E+00
 -1      2361 9.35280E+01 3.38762E+02-2.90664E+00 3.30948E+02-4.77647E-02-3.60024E+00
 -1      2362 1.55665E+02 3.46293E+02-1.49327E+00 3.62615E+02 8.99790E-01 3.32693E-01
 -1      2363-1.84170E+02 2.85466E+02 5.31413E-01 2.04059E+02 1.44808E+00 1.91771E-01
 -1      2364-3.06696E+02 2.17645E+02 8.03814E-01 1.08711E+02 3.44933E+00 1.23905E+00
 -1      2365-2.46316E+02 2.35348E+02 3.80726E-01 1.45523E+02 4.75094E-02 3.41298E+00
 -1      2366-1.88425E+02 2.98716E+02-3.09569E+00 2.04610E+02-9.27704E-01-1.40281E+00
 -1      2367-2.45977E+02 2.37475E+02-1.11812E-01 1.45519E+02 5.06024E-01 3.11042E+00
 -1      2368-2.34944E+02 2.20918E+02 8.61333E-01 1.41250E+02-2.65116E+00 6.77931E-01
 -1      2369-2.09124E+02 2.78553E+02-1.86149E+00 1.89583E+02-8.52442E-01 4.01780E+00
 -1      2370-1.41940E+03-1.67992E+01-6.45060E-01-2.37009E+02-2.24130E+00 4.63524E+00
 -1      2371-1.32808E+03-1.32934E+01 3.53032E+00-2.25704E+02-7.21467E+00 7.27380E+00
 -1      2372-1.32042E+03-2.05388E+01 3.23058E+00-2.31188E+02-2.78219E+00 1.48659E+00
 -1      2373-1.24456E+03-7.71934E+00 2.85099E+00-2.17162E+02 2.45694E+00 3.19166E+00
 -1      2374-2.10218E+02 1.87386E+02-2.56073E+00 2.57782E+02-3.08728E+00 2.49111E+00
 -1      2375-3.62121E+02 1.99286E+02-5.74663E-01 7.27524E+01 2.90262E+00 5.05577E+00
 -1      2376-3.04709E+02 2.17791E+02 1.27085E+00 1.03366E+02 1.11133E+00 3.31324E+00
 -1      2377-4.20452E+02 1.79320E+02-6.17636E-02 4.58481E+01-5.46504E-01 4.37427E+00
 -1      2378-3.62102E+02 1.94307E+02 2.28034E+00 7.17410E+01 1.81427E+00 2.44565E+00
 -1      2379-1.86544E+02 2.82169E+02 5.51396E+00 2.01455E+02-5.50249E-01 1.69258E+00
 -1      2380-1.24513E+03-4.98746E+00-5.70866E-01-2.24130E+02-2.49246E+00 3.08833E+00
 -1      2381-1.17272E+03-4.34878E+00 2.40580E-01-2.10345E+02-1.99059E+00 1.33268E-01
 -1      2382-1.16169E+03 5.02001E-01-2.79542E+00-2.09560E+02 3.16722E+00 2.81979E+00
 -1      2383-1.10641E+03 1.80698E+01 1.27836E+00-1.99140E+02-5.07909E-01 2.32765E+00
 -1      2384-2.10988E+02 1.99442E+02-3.26777E-01 2.39419E+02-1.62504E+00 1.93287E+00
 -1      2385 1.34876E+03 2.79233E+02 1.13477E+00 7.70185E+02-9.94432E-01 2.26627E-01
 -1      2386 1.44314E+03 2.70020E+02 3.67592E+00 7.71549E+02 2.72523E+00-1.50733E+00
 -1      2387 1.28223E+03 3.03710E+02-8.86159E-01 7.66409E+02 4.72007E+00 5.27230E-01
 -1      2388 1.33729E+03 2.75933E+02 1.27127E+00 7.60538E+02 4.46437E+00 2.70432E+00
 -1      2389-2.37031E+02 1.11402E+02 9.53561E-01 2.78099E+02-4.43564E-01 2.20050E+00
 -1      2390 1.00527E+03 3.64978E+02-2.74572E+00 7.18113E+02 1.02009E+00-5.75223E-01
 -1      2391 1.10812E+03 3.61232E+02 4.93212E+00 7.39880E+02 2.49927E+00 9.01973E-01
 -1      2392-2.08914E+02 1.74687E+02 4.14185E+00 2.70612E+02-8.02455E-01 1.00970E+00
 -1      2393 1.10265E+03 3.47149E+02 2.27830E-01 7.43556E+02 2.72607E+00-2.19688E+00
 -1      2394 1.20418E+03 3.47347E+02 2.86477E+00 7.63676E+02-2.20097E+00-2.08490E+00
 -1      2395 1.44410E+03 2.50557E+02 1.23977E+00 7.68167E+02 1.86754E+00-1.38491E+00
 -1      2396 1.53960E+03 2.38739E+02 3.70536E+00 7.69867E+02-3.43238E+00-1.34772E+00
 -1      2397 1.54078E+03 2.22131E+02-6.26019E-01 7.67194E+02 2.69631E-01 7.92246E-01
 -1      2398 1.64208E+03 1.94308E+02 2.58863E+00 7.57915E+02 2.44171E+00 4.94381E-01
 -1      2399-2.39600E+02 8.74511E+01-1.28777E+00 2.98809E+02-8.85681E-02 2.57284E+00
 -1      2400 9.54811E+02-1.67038E+02 1.45550E+01-7.27091E+01 1.28362E+02 1.97760E+01
 -1      2401 2.35604E+03-1.88840E+02-2.34347E+01 1.43752E+02 8.09198E+01 6.15676E+01
 -1      2402 3.52691E+03-3.27553E+02-1.19622E+02-1.00724E+01 1.69520E+02 5.11980E+01
 -1      2403-1.69774E+02 3.04121E+02 5.91672E+00 2.13523E+02-3.41980E+00 4.17044E+00
 -1      2404-7.65630E+01 2.89888E+02-2.45517E+00 2.17617E+02-3.31429E-01 6.55014E+00
 -1      2405-8.74300E+01 3.05439E+02 5.34369E+00 2.30320E+02-7.40606E-01-4.92711E+00
 -1      2406-6.06624E+02 1.24184E+02 1.12107E-01-3.94339E+01 1.72984E+00 2.35155E+00
 -1      2407-5.43309E+02 1.39638E+02 1.85522E+00-1.31537E+01-9.24824E-01 4.11039E+00
 -1      2408-6.68104E+02 1.09272E+02 1.02927E-01-6.75564E+01-4.08670E-01 8.20759E+00
 -1      2409-6.00324E+02 1.26283E+02 3.03694E+00-4.16960E+01 5.09800E-01 4.02959E+00
 -1      2410 3.39753E+02 3.84162E+02-3.63720E-01 4.70546E+02-5.28938E+00 9.55466E-01
 -1      2411 4.02370E+02 3.98873E+02 3.37888E+00 4.99541E+02-1.71382E+00-1.60217E+00
 -1      2412 3.99100E+02 3.91033E+02-8.76929E-01 4.97505E+02-7.93170E-01-1.33708E+00
 -1      2413 4.68315E+02 4.02638E+02 2.58215E+00 5.28829E+02-3.12124E+00-1.22546E+00
 -1      2414-2.15517E+03-5.98349E+01 1.81237E-01-1.30412E+02-7.85112E+00 5.38277E+00
 -1      2415-2.07367E+03-7.69436E+01 2.08588E+00-1.57244E+02-7.71780E+00 2.05652E+00
 -1      2416-2.25093E+03-7.63940E+01 8.97334E+00-9.84219E+01-1.02209E+01 2.90578E+00
 -1      2417-2.15078E+03-6.32444E+01 5.98410E+00-1.18858E+02-4.78516E+00 3.03774E+00
 -1      2418 1.95836E+03 7.71374E+01 1.27666E-01 6.99652E+02 3.28835E+00 1.07500E+00
 -1      2419 2.05768E+03 5.77344E+01 1.76650E-01 6.71854E+02 1.80594E+00 1.82541E-01
 -1      2420 2.05697E+03 3.19238E+01-9.31372E-01 6.61555E+02 3.28637E+00 1.32726E+00
 -1      2421 2.16804E+03-1.40956E+01 2.74512E+00 6.20760E+02 7.30718E+00 3.71185E+00
 -1      2422-2.59449E+03-1.16163E+02-3.93809E+00 7.41162E+01 6.59501E+00-5.10978E+00
 -1      2423-2.55453E+03-1.22450E+02 7.75029E+00 4.67928E+01-1.69405E+00 5.88451E+00
 -1      2424-2.56355E+03-9.90223E+01-1.41692E+00 4.59352E+01-2.11213E+00 5.51176E+00
 -1      2425-2.46143E+03-8.60960E+01 2.62005E+00 6.72729E+00-5.52704E+00 9.23581E+00
 -1      2426-1.85513E+02-1.57593E+02 1.91639E+00 2.71834E+02 4.12438E+01 3.81664E+00
 -1      2427 2.42267E+03-1.42054E+02 8.34253E+00 3.92132E+02 4.05161E+01 2.10724E+01
 -1      2428 2.40397E+03-1.91051E+02 6.68758E+00 2.35912E+02 5.08539E+01 2.21679E+01
 -1      2429 6.06971E+02 4.02503E+02-1.57499E+00 5.90016E+02-6.95620E-01-1.57633E+00
 -1      2430 6.81303E+02 4.14144E+02 2.66299E-02 6.18076E+02 2.26860E+00-9.86001E-01
 -1      2431-2.08397E+02 2.32478E+02 1.61263E+00 2.35401E+02 9.37483E-01 1.34129E+00
 -1      2432-1.02847E+03 2.16804E+01 2.47855E+00-1.84171E+02 4.74633E-02 4.61535E+00
 -1      2433-1.11186E+03 1.45246E+01-8.94895E-01-2.05406E+02-2.16825E+00 4.04263E+00
 -1      2434 1.54687E+02 3.51443E+02 2.15693E+00 3.70985E+02-2.00542E+00 8.99788E-01
 -1      2435 2.14339E+02 3.68175E+02 2.73281E+00 4.00709E+02-5.60732E-01-3.48506E+00
 -1      2436-1.82342E+02 2.73836E+02-1.32747E+00 2.04506E+02-2.02055E-01-4.38586E-01
 -1      2437-8.68357E+02 5.46593E+01 1.22710E+00-1.39972E+02-5.40398E-01 4.92537E+00
 -1      2438-8.01982E+02 7.40183E+01 2.38430E+00-1.14364E+02 3.17249E+00 4.29011E+00
 -1      2439-2.00956E+02 2.55324E+02 2.96493E+00 2.22324E+02-4.41865E-01-2.57378E-02
 -1      2440-1.67448E+03-3.72602E+01 2.46312E-01-2.25536E+02 1.36482E+00 4.17295E+00
 -1      2441-1.59684E+03-3.01773E+01 4.05545E+00-2.30634E+02-2.20722E+00 6.92568E+00
 -1      2442-2.07553E+02 1.44455E+02-2.26528E-01 2.86422E+02-5.55231E-01 7.53047E-01
 -1      2443 1.21143E+03 3.36527E+02 8.78306E-01 7.66099E+02 4.48310E-04-2.44202E+00
 -1      2444 1.30023E+03 3.19793E+02 2.03255E+00 7.73309E+02 1.75450E+00-7.19954E-01
 -1      2445 1.63865E+03 1.80806E+02-9.83878E-01 7.56393E+02 6.62406E+00 1.46516E+00
 -1      2446 1.73127E+03 1.46380E+02 1.70676E+00 7.42075E+02 6.54717E+00 3.12135E+00
 -1      2447-2.48303E+02 3.04151E+01 7.05778E-01 3.05843E+02-1.09272E+00 2.13995E+00
 -1      2448-2.38504E+02-1.69807E+01 1.42762E+00 3.16959E+02 4.98709E-01 2.65723E+00
 -1      2449-2.49881E+02-7.58989E+01 1.52707E+00 3.36417E+02-1.96805E-01 6.49978E-01
 -1      2450-1.97060E+02 2.61290E+02 4.11698E+00 2.11579E+02-9.57456E-01 1.19740E+00
 -1      2451-8.32214E+02-2.35770E+02-4.03480E+01 5.79351E+02 7.44924E+00-5.37719E-01
 -1      2452-1.74727E+02 2.55830E+02-1.14516E-01 1.76909E+02 1.91804E+00 3.81319E-02
 -1      2453-1.49036E+02 2.41387E+02 1.45152E+00 1.78324E+02-5.79315E-01 1.20914E+00
 -1      2454-4.15570E+02-2.37929E+02-4.69247E+01 3.06278E+02-2.63634E+00-4.79962E-01
 -1      2455-3.56793E+02-8.37312E+01-3.09922E+01 2.58152E+02-8.07116E-02-1.08639E-02
 -1      2456-1.58010E+02 2.29999E+02-1.31971E+00 1.80399E+02-2.62136E-01-8.88048E-01
 -1      2457-1.67182E+02 2.18553E+02-1.98495E+00 1.85796E+02-7.78607E-01-1.78452E+00
 -1      2458-1.65408E+02 1.90631E+02-3.79892E+00 1.81831E+02-1.31590E+00-1.68448E+00
 -1      2459-1.96130E+02 1.77077E+02-4.80973E+00 1.96154E+02 4.36097E-04 1.20357E+00
 -1      2460-2.21810E+02 1.38899E+02-1.14259E+01 2.08077E+02 1.21739E-01 2.23493E+00
 -1      2461-2.97076E+02 2.21010E+01-2.15149E+01 2.36426E+02-1.88661E-02 1.08005E-01
 -1      2462-3.73903E+02-1.38239E+02-3.36587E+01 2.71707E+02-7.95110E-02 2.20117E+00
 -1      2463-2.36975E+02 1.09590E+02-1.24198E+01 2.17909E+02 6.71661E-01 1.59562E+00
 -1      2464-2.66085E+02-1.05402E+01-1.85454E+01 2.40786E+02 6.22171E-02 1.27383E-01
 -1      2465-2.55091E+02 7.56657E+01-1.50676E+01 2.27412E+02 8.84501E-02 2.01327E+00
 -1      2466 2.10448E+02 2.45411E+02-6.32069E+00 3.82945E+02 1.38047E+00 1.08768E-01
 -1      2467-1.68132E+01 2.69631E+02 9.50436E-01 2.48010E+02-3.87351E-01 1.17341E-01
 -1      2468 6.55641E+02-1.55603E+02-3.31420E+01 4.23846E+02 2.05900E+00 8.74871E-01
 -1      2469-5.47268E+01 2.57969E+02-1.60881E+00 1.96725E+02 7.69825E-01-5.59507E+00
 -1      2470 4.26645E+03-1.49910E+02 2.17259E+02 6.81805E+02-1.22977E+02 6.24065E+01
 -1      2471-3.96246E+01 2.59774E+02-3.77819E-01 1.98124E+02-4.86082E-01 5.50307E+00
 -1      2472-4.67203E+03-2.11052E+02-2.69193E+02 3.65428E+02-1.43745E+02-8.95607E+01
 -1      2473-2.42167E+03-1.79104E+02-1.83278E+01-3.28789E+02 7.23315E+00 3.42519E+00
 -1      2474 2.19232E+03 2.91041E+01-2.40715E+01 7.76089E+02-9.67451E+00-5.32653E+00
 -1      2475-6.78046E+02 5.42720E+01-1.09833E+00-1.18491E+02 3.62034E+00 4.69568E+00
 -1      2476 4.01020E+02 3.67241E+02-1.83691E-01 4.64168E+02 2.36366E+00 3.55176E+00
 -1      2477-1.00627E+03-3.10734E+01-4.29788E+00-2.41088E+02-1.64186E+00-1.86291E+00
 -1      2478-8.43447E+02 9.63307E+00-8.82173E-01-1.84831E+02-2.51038E+00-1.38557E+00
 -1      2479 5.49297E+02 3.84245E+02-2.63717E+00 5.40169E+02-1.84557E+00-1.36231E+00
 -1      2480 7.04911E+02 3.95387E+02-2.96500E+00 6.13455E+02-3.27367E+00-3.47428E+00
 -1      2481-2.69317E+03-1.88826E+02-2.12381E+01-2.67586E+02-1.15957E+01-5.36130E+00
 -1      2482 1.13657E+03 3.58769E+02-8.57212E+00 7.63243E+02-5.02977E+00-4.24954E+00
 -1      2483-1.71045E+03-1.34178E+02-1.03436E+01-3.73441E+02 4.82916E+00 1.12494E+00
 -1      2484 1.53504E+03 2.72562E+02-1.22761E+01 8.34771E+02 7.50154E+00 2.55751E+00
 -1      2485-1.49808E+03-1.11226E+02-8.54672E+00-3.53498E+02-5.80471E+00-4.48857E+00
 -1      2486-2.18830E+03-1.64900E+02-1.51124E+01-3.64421E+02-8.96592E+00-4.00001E+00
 -1      2487 1.96037E+03 1.20919E+02-1.90430E+01 8.24367E+02 9.17591E+00 2.75791E+00
 -1      2488 1.33092E+03 3.19379E+02-1.09511E+01 8.05920E+02 3.99200E+00 1.84681E+00
 -1      2489 1.74475E+03 1.98944E+02-1.70684E+01 8.34317E+02-5.13606E+00-2.44704E+00
 -1      2490-1.94221E+03-1.58193E+02-1.31742E+01-3.83646E+02 6.16855E+00 2.13164E+00
 -1      2491 4.26260E+03-1.10284E+02 2.40016E+02 6.70602E+02 1.30273E+02-7.47561E+01
 -1      2492-1.92830E+02 1.91619E+02 3.73695E+00 1.25251E+02 6.23593E+00 2.31640E+00
 -1      2493-4.63859E+02 1.15309E+02 7.14032E-01-2.39038E+01 3.54219E+00 1.16356E+00
 -1      2494-3.13315E+03-2.09830E+02-2.48650E+01-2.08663E+02 1.43495E+01 2.44228E+00
 -1      2495 2.87939E+03-2.11040E+02-3.53388E+01 5.60604E+02-4.85815E+01-2.94759E+01
 -1      2496 5.48461E+01 2.85573E+02 1.82546E-01 2.66437E+02-2.70643E+00-4.59661E+00
 -1      2497-4.82701E+03-2.63090E+02-3.32970E+02 3.58552E+02 1.53603E+02 1.00883E+02
 -1      2498-5.56449E+02 8.37719E+01-8.57928E-02-6.77764E+01 2.85102E+00 4.91574E+00
 -1      2499-3.30115E+03-2.27734E+02-2.56348E+01-1.34198E+02 1.01024E+01 4.62662E+00
 -1      2500-1.93369E+02 1.84547E+02 2.58757E+00 1.20326E+02-6.84462E+00-2.84763E+00
 -1      2501-1.36748E+03-1.02499E+02-5.69526E+00-3.52421E+02 3.49906E+00 2.67345E+00
 -1      2502-1.29730E+03-9.76299E+01-5.65479E+00-3.52309E+02 3.86646E+00 1.98943E+00
 -1      2503-3.59287E+03-2.44985E+02-1.94384E+01 4.00344E+01 1.83462E+01-2.82800E+01
 -1      2504-3.41883E+02 1.34306E+02 6.24527E-01 2.41711E+01 1.43501E+00 3.20821E+00
 -1      2505-3.55204E+01 2.84881E+02 3.14929E-01 2.42252E+02 2.30877E+00 2.46775E+00
 -1      2506 1.04284E+03 4.24637E+02-4.12171E+00 7.52322E+02-3.79170E+00-3.09366E+00
 -1      2507 1.19226E+03 4.19641E+02-5.88173E+00 7.98858E+02-5.48372E+00-3.23181E+00
 -1      2508 2.30337E+02 3.21907E+02 6.68111E-01 3.58369E+02-2.16358E+00-4.42733E+00
 -1      2509-4.74712E+02 1.05632E+02-3.93951E-01-3.27735E+01-2.68186E+00-3.55014E+00
 -1      2510-6.02588E+02 6.87498E+01-7.03491E-01-9.70859E+01-1.85443E+00-3.85742E+00
 -1      2511 3.42300E+02 3.55530E+02-3.34336E-01 4.25741E+02-2.03263E+00-2.77402E+00
 -1      2512 2.90969E+03-3.81542E+01-2.72369E+01 7.79981E+02-1.22061E+01-4.16962E+00
 -1      2513 3.11010E+03-1.09685E+02-3.25915E+01 6.88516E+02-1.83883E+01-8.74812E+00
 -1      2514-2.27337E+03-1.97279E+02-1.28826E+01-5.00973E+02-7.16426E+00-4.16882E+00
 -1      2515 8.96043E+02 4.29032E+02-2.04765E+00 6.96648E+02 3.85854E+00 2.84373E+00
 -1      2516-7.48699E+02 2.23532E+01 9.25685E-01-1.69179E+02-2.89163E+00-2.49340E+00
 -1      2517 4.94988E+02 3.83968E+02-1.81967E+00 5.03451E+02-1.80568E+00-2.46243E+00
 -1      2518 6.68391E+02 4.10161E+02-2.43374E+00 5.92684E+02 3.60856E+00 3.47008E+00
 -1      2519-9.35211E+02-2.55085E+01-1.38382E+00-2.47820E+02 2.88137E+00 4.34708E+00
 -1      2520-1.13988E+03-7.15498E+01-1.33059E+00-3.19247E+02 1.96419E+00 2.73892E+00
 -1      2521 2.65131E+03 6.55599E+01-2.11861E+01 8.72552E+02 1.16490E+01 3.66672E+00
 -1      2522-1.69826E+03-1.55218E+02-5.68574E+00-4.57164E+02 6.42706E+00 1.92853E+00
 -1      2523-2.84373E+03-2.04880E+02-1.87149E+01-4.37984E+02-9.86533E+00-3.09083E+00
 -1      2524 2.11207E+03 2.42633E+02-1.55164E+01 9.41629E+02 7.30017E+00 2.81064E+00
 -1      2525-3.08345E+03-1.97539E+02-1.93957E+01-3.79180E+02 1.30506E+01 4.80104E+00
 -1      2526 1.37645E+03 4.04127E+02-7.92995E+00 8.57559E+02 5.53503E+00 2.44711E+00
 -1      2527 1.90535E+03 3.03127E+02-1.25507E+01 9.39322E+02-9.00055E+00-3.74007E+00
 -1      2528 2.44032E+03 1.45358E+02-1.91203E+01 9.17620E+02-1.14903E+01-3.96162E+00
 -1      2529-2.49192E+03-1.93189E+02-1.39121E+01-4.88449E+02 1.04588E+01 3.85881E+00
 -1      2530 1.61111E+03 3.66807E+02-1.07479E+01 9.05861E+02-7.16873E+00-2.93306E+00
 -1      2531-1.95042E+03-1.74727E+02-8.43516E+00-4.90912E+02-6.09693E+00-3.91919E+00
 -1      2532-1.51193E+03-1.38353E+02-5.55377E+00-4.24011E+02-4.57611E+00-5.15422E+00
 -1      2533-3.35616E+03-2.06570E+02-2.49334E+01-2.69396E+02-1.51741E+01-3.91921E+00
 -1      2534-3.57535E+03-2.23418E+02-2.51929E+01-1.65071E+02-1.16264E+01-5.02837E+00
 -1      2535 3.30921E+03-1.95063E+02-4.01589E+01 5.88672E+02 4.90733E+01 3.46037E+01
 -1      2536-3.87382E+03-2.39563E+02-1.65281E+01-1.66933E+01-9.47956E+00 2.88991E+01
 -1      2537 1.16433E+03 4.51740E+02-2.95919E+00 8.00828E+02 4.19905E+00 3.74334E+00
 -1      2538 1.62146E+03 4.86808E+02-4.23536E+00 9.72255E+02 6.48274E+00 2.43735E+00
 -1      2539 2.51268E+02 3.30084E+02 4.03495E-01 3.64779E+02 1.99942E+00 4.49977E+00
 -1      2540 4.26978E+02 3.69065E+02-9.74303E-01 4.61384E+02 3.02616E+00 3.96295E+00
 -1      2541-1.37841E+03-1.17886E+02-3.82474E+00-3.99324E+02-3.59594E+00-2.25708E+00
 -1      2542 3.51005E+03-1.13455E+02-2.98675E+01 7.14611E+02 2.11275E+01 1.02545E+01
 -1      2543 3.22138E+03-1.16230E+01-2.18785E+01 8.40910E+02 1.47164E+01 2.62148E+00
 -1      2544-4.08366E+02 1.14897E+02 1.93988E+00-1.24761E+01-5.56950E-01-3.68087E+00
 -1      2545-3.00655E+03-2.32861E+02-1.27276E+01-5.89716E+02 1.34966E+01 1.71125E+00
 -1      2546-9.43814E+02-4.72832E+01-5.79556E-01-2.76032E+02-3.84085E+00-4.65911E+00
 -1      2547 9.73118E+02 4.59856E+02-1.57064E+00 7.33000E+02 4.30706E+00 2.22586E+00
 -1      2548 7.10688E+02 4.23193E+02-8.39132E-01 6.02623E+02-4.19941E+00-4.25344E+00
 -1      2549-1.41477E+03-1.42943E+02-2.99788E+00-4.50481E+02 3.83608E+00 2.53626E+00
 -1      2550-3.70026E+03-2.18610E+02-1.60023E+01-4.31649E+02 1.61006E+01 3.29021E+00
 -1      2551 2.76639E+03 2.20522E+02-1.37393E+01 1.05065E+03-1.32513E+01-8.18423E-01
 -1      2552-3.09881E+03-2.26277E+02-1.34950E+01-5.82642E+02-1.24576E+01-1.55307E+00
 -1      2553 2.67956E+03 2.44889E+02-1.35994E+01 1.05436E+03 1.14675E+01 1.84614E+00
 -1      2554-2.38509E+03-2.29822E+02-7.85609E+00-6.20193E+02-1.03260E+01-2.60287E+00
 -1      2555 2.07621E+03 3.87200E+02-8.64016E+00 1.03996E+03-7.38053E+00-9.88757E-01
 -1      2556 1.78814E+03 4.30793E+02-6.71310E+00 9.89676E+02 7.79538E+00 2.83687E+00
 -1      2557-2.07319E+03-2.20617E+02-5.69521E+00-5.93293E+02 8.34109E+00 3.69318E+00
 -1      2558-2.87520E+02 1.72660E+02 1.19643E+00 7.49483E+01-2.78728E+00-2.36896E+00
 -1      2559-1.19238E+03-1.00608E+02-1.97487E+00-3.74067E+02 3.69067E+00 2.89623E+00
 -1      2560 9.43823E+02 4.58214E+02-1.95745E+00 7.20543E+02-3.25651E+00-3.04086E+00
 -1      2561-1.20586E+03-1.02778E+02-1.48466E+00-3.77724E+02-4.31425E+00-3.22556E+00
 -1      2562 2.11373E+03 3.80825E+02-8.53802E+00 1.04670E+03 9.29846E+00 2.03083E+00
 -1      2563-1.54595E+03-8.96447E+01-5.20696E+00-2.67971E+02 5.58467E+00 2.81810E+00
 -1      2564-2.76576E+03-2.96384E+02-4.07779E+00-8.07042E+02 5.47798E+00 4.44460E+00
 -1      2565-4.00470E+03-4.71987E+02 3.63391E+00-1.32203E+03 8.93006E+00 3.09312E+00
 -1      2566-2.37827E+03-2.01441E+02-6.40028E+00-5.82664E+02 9.80767E+00 1.61943E+00
 -1      2567-3.60472E+03-4.18356E+02-2.87898E+00-1.12857E+03 9.90956E+00 1.55900E+00
 -1      2568-1.08044E+03-3.35180E+01-6.48715E+00-7.69109E+01-3.38700E-01-2.71333E+00
 -1      2569-3.40431E+03-4.03972E+02 9.41212E+00-1.11489E+03 3.14202E+00 2.25468E+00
 -1      2570-2.24829E+03-1.95308E+02-1.39959E+00-5.74324E+02 7.53966E+00 1.21013E+00
 -1      2571-1.00170E+03-3.16999E+01-1.70502E+01-7.25064E+01 2.37224E+00 4.87506E-01
 -1      2572 1.52357E+02 1.83313E+02-6.60808E+00 2.06372E+02-1.88451E+00-2.48498E+00
 -1      2573 2.22361E+02 2.19677E+02-2.30971E-01 2.50062E+02 3.13113E+00 8.22277E-01
 -1      2574 1.61880E+02 1.81521E+02-5.54592E+00 2.05028E+02 2.47796E+00 2.07279E+00
 -1      2575 2.28119E+02 2.18174E+02-1.65655E+00 2.49797E+02-3.45869E+00-1.60792E-01
 -1      2576-5.25112E+01 2.48983E+02-5.99471E+00 1.84524E+02 1.00883E-01-2.18338E-01
 -1      2577-9.46305E+01 2.77455E+02 3.60370E+00 2.06471E+02 2.09140E+00-2.51382E+00
 -1      2578-1.11305E+02 2.78872E+02 4.38799E+00 2.10993E+02 2.95223E+00-3.03761E+00
 -1      2579-2.06200E+02 2.43005E+02-2.76747E-02 1.56408E+02 4.58597E+00 2.89578E-01
 -1      2580-1.44415E+02 2.47262E+02-1.80414E-02 1.74194E+02 5.87651E+00-5.16371E+00
 -1      2581-2.03918E+02 2.29796E+02-2.36219E+00 1.52270E+02 3.91043E+00-6.35134E-01
 -1      2582 1.90947E+03-1.35036E+02 8.33874E+01 3.38399E+02-1.14141E+02 7.62097E+00
 -1      2583 1.63354E+03-1.71697E+02 6.13062E+01 6.35360E+02-1.01865E+02 9.60682E-01
 -1      2584-5.04984E+02-2.08325E+02-2.60568E+01 3.38645E+02-1.05202E+02-1.09709E+01
 -1      2585-2.38417E+03-2.93241E+02-1.30534E+02 1.83756E+02-1.28768E+02-5.43175E+01
 -1      2586-2.72065E+03-2.48938E+02-1.54139E+02 4.37210E+02-9.81151E+01-9.73464E+00
 -1      2587-2.52765E+02-1.94573E+02-4.96778E+01 5.12241E+02-1.27728E+02 1.70792E+01
 -1      2588 5.31594E+03-1.27609E+02 3.10248E+02 5.61545E+02 6.61221E+00-6.46756E+00
 -1      2589 7.94564E+03-7.80329E+01 5.63398E+02 5.46819E+02-5.43475E+01 5.56250E+01
 -1      2590 7.97221E+03-4.83896E+01 5.43719E+02 5.75148E+02 5.56565E+01-7.61928E+01
 -1      2591 4.34846E+03-1.30685E+02 3.74195E+02 7.15076E+02 2.33446E+00 1.21939E+01
 -1      2592 1.62762E+03-1.96658E+02 5.23382E+01 6.20283E+02 1.16027E+02 1.90610E-01
 -1      2593-1.15906E+03-2.08944E+02 5.70416E+00-5.09622E+02 4.42004E+00 8.35670E+00
 -1      2594-1.10096E+03-1.91125E+02-5.92363E+00-4.57043E+02 1.53078E+00-4.27975E-01
 -1      2595-7.78411E+02 1.97866E+01 3.85802E-01-1.88239E+02 5.51318E+00 3.25681E+00
 -1      2596-7.18092E+02 2.38250E+01-3.76957E+00-1.53957E+02 2.91665E-01 4.17545E+00
 -1      2597-6.16976E+02 7.08461E+01 2.49436E+00-9.56403E+01 6.62901E+00 6.09570E+00
 -1      2598-9.96513E+02-1.52935E+02 5.26008E+00-4.13101E+02 2.48471E+00 1.82025E+00
 -1      2599-4.06399E+02 1.54154E+02 3.97910E+00 3.59960E+01 3.85668E+00 5.45226E+00
 -1      2600-8.33071E+02-7.32085E+01 7.54222E-01-2.87683E+02 3.20039E+00 3.17185E+00
 -1      2601-3.76298E+02 1.52322E+02-5.15916E+00 5.53916E+01 4.49887E+00 6.57092E+00
 -1      2602-5.10008E+02 1.00566E+02-2.41683E+00-3.58413E+01-6.28112E-01-1.14767E+00
 -1      2603 5.16301E+03-1.47156E+02 7.21786E+01 6.35036E+02 3.24888E+00-1.97778E+00
 -1      2604 7.73494E+03-1.05529E+02 2.75140E+02 6.21104E+02 4.79260E+01-3.77440E+01
 -1      2605-4.65795E+02-2.09702E+02-1.85466E+01 3.48170E+02-8.95573E+01 9.44687E-01
 -1      2606-2.28044E+03-1.60937E+02-7.18524E+01 2.05882E+02-9.91631E+01-1.36297E+01
 -1      2607-6.31137E+02-6.06810E+01-2.92743E+00-2.19750E+02 4.06977E+00 1.16672E+00
 -1      2608-4.92494E+02 1.05103E+02 1.08531E+00-4.79439E+01 5.43954E+00 2.65911E+00
 -1      2609-6.23352E+02-6.04135E+01 3.48859E+00-2.31452E+02 3.19490E+00 8.65041E+00
 -1      2610-5.29746E+02-3.25460E+01 1.10770E+00-1.81713E+02 3.52232E+00 7.32580E+00
 -1      2611-4.30992E+02 1.06643E+02-1.47930E+00-1.72032E+01-6.75031E-01 5.39468E+00
 -1      2612-4.01984E+02 1.27997E+02 1.96647E+00-1.94426E+00 2.45254E+00 5.32447E-01
 -1      2613-2.97072E+02 1.83170E+02 3.51726E+00 7.71534E+01 5.28826E+00 8.80049E+00
 -1      2614-3.25784E+02 1.59696E+02-4.33602E-01 5.21764E+01 2.34122E-01 5.53035E-01
 -1      2615-2.59568E+02 1.75691E+02-7.87900E+00 9.48146E+01 2.05724E+00 5.16732E+00
 -1      2616 5.73683E+03 1.94812E+02 6.48455E+00 1.33120E+03 3.01687E+00-1.76695E+00
 -1      2617 1.18476E+03-2.35056E+01-2.11720E+01 5.67414E+02 3.27266E+00 6.95702E+00
 -1      2618 4.20466E+03 8.43494E+01-6.33725E+00 1.02857E+03-2.34543E+00 3.38739E+00
 -1      2619 6.09573E+03 1.62094E+02 6.00858E+00 1.29810E+03 1.30000E+01-5.99396E+00
 -1      2620 1.42287E+03-8.34618E+01-2.55905E+01 5.58758E+02 4.35923E+00 8.96587E+00
 -1      2621 2.94990E+03 2.44118E+01-2.23301E+01 8.59913E+02 1.31841E+01 1.19105E+00
 -1      2622 1.20954E+03 3.01103E+01-8.83714E+00 5.89927E+02 5.97219E+00 2.60177E+00
 -1      2623-2.70920E+02-7.36358E+01-1.17526E+01 2.77212E+02-2.99067E+00 6.17679E-01
 -1      2624 1.48277E+03-2.50143E+01-1.12110E+01 5.86068E+02 5.84197E+00 1.63817E+00
 -1      2625 5.83459E+03 1.83321E+02 4.54680E+00 1.31051E+03 1.49411E+01 9.85233E+00
 -1      2626 6.19570E+03 1.56778E+02 5.68975E+00 1.26729E+03 1.47548E+01 7.50317E+00
 -1      2627 3.40633E+03 9.09964E+01-1.17227E+01 9.73441E+02 1.92882E+01 4.14589E+00
 -1      2628 3.71359E+03 6.22286E+01-7.92989E+00 9.53257E+02 1.33603E+01 5.86105E+00
 -1      2629 7.74013E+03-1.01348E+02 2.82583E+02 6.23757E+02-5.05287E+01 3.34752E+01
 -1      2630 1.91590E+03-2.44142E+02 4.16262E+01 3.88073E+02-9.81324E+01 5.97883E+00
 -1      2631-7.89615E+02-6.22664E+01 1.07050E+00-2.67355E+02 1.72269E+00-3.13772E+00
 -1      2632-8.75868E+02-8.60256E+01 1.67413E+00-3.09535E+02 1.42389E+00-2.98120E+00
 -1      2633-1.58171E+02 2.37689E+02-1.17090E+00 1.81822E+02-3.17211E-01-1.44113E+00
 -1      2634-1.51774E+02 2.37282E+02 2.30344E-01 1.86035E+02-1.37655E+00-1.38142E+00
 -1      2635-1.55790E+02 2.48738E+02 8.44512E-01 1.77617E+02 2.49816E+00-4.63011E-01
 -1      2636-2.63477E+02 2.02919E+02 2.64773E+00 1.08420E+02 2.72308E+00 1.93758E+00
 -1      2637-1.44786E+02 2.49677E+02 2.78235E+00 1.83213E+02 5.59884E-01 3.39251E-01
 -1      2638-2.13697E+03-1.37218E+02-9.14357E+00-2.04200E+02 7.52700E+00-2.07449E+00
 -1      2639-2.71689E+02-2.71872E+01-1.39137E+01 2.66174E+02 8.11817E-01-2.06723E-01
 -1      2640-3.16729E+03-2.04659E+02-7.61757E+00-4.95090E+02 1.16154E+01-6.37693E-01
 -1      2641-1.33886E+03-7.64046E+01-1.28721E+01-1.35625E+01 3.84571E+00 6.55568E-01
 -1      2642-1.40138E+03-1.28085E+02-2.38661E+01-3.04045E+01 1.09959E+00 9.05906E+00
 -1      2643-1.62173E+03-8.68692E+01-9.97497E+00-4.80293E+01 7.43797E+00 9.69465E-01
 -1      2644-3.50365E+03-1.94860E+02-8.16220E+00-5.17990E+02 1.64244E+01 4.32298E-01
 -1      2645-1.69326E+03-1.28420E+02-1.77017E+01-6.43308E+01 6.81278E+00 8.96045E+00
 -1      2646-2.99005E+02-8.47783E+01-2.23297E+01 2.88170E+02 4.78909E+00 5.62024E-01
 -1      2647 1.92497E+03-2.19413E+01-2.07555E+01 6.63583E+02-4.61005E+00 4.41760E-01
 -1      2648 9.68864E+02 7.34275E+00-1.23454E+01 5.38178E+02-3.48766E+00-5.62511E-01
 -1      2649 3.19256E+03 7.70777E+01-1.25246E+01 9.21866E+02-1.52900E+01-6.12592E+00
 -1      2650 9.35654E+02-4.20819E+01-2.29860E+01 5.23044E+02-1.96383E+00-6.05080E+00
 -1      2651 1.71724E+03 7.88719E+01-7.63358E+00 7.09992E+02-7.03866E+00 6.75911E-01
 -1      2652-2.77336E+02-3.87304E+01-1.37341E+01 2.68589E+02 5.99553E-02 3.33549E-01
 -1      2653 3.00276E+03 1.19737E+02-8.23247E+00 9.67638E+02-1.17965E+01-3.28967E+00
 -1      2654 9.66827E+02 1.01698E+01-1.46815E+01 5.38363E+02-3.02171E+00-2.39972E+00
 -1      2655 9.09651E+02-2.69152E+01-2.79029E+01 5.23238E+02-1.11783E+00-9.17723E+00
 -1      2656-2.47122E+02 1.01808E+02-9.54280E+00 2.33241E+02 6.31698E-01-2.77790E+00
 -1      2657-2.38098E+02 9.14707E+01-7.79932E+00 2.36708E+02-2.33829E+00-1.43457E+00
 -1      2658-2.71739E+03-1.74473E+02-1.16599E+01-3.56589E+02 1.44040E+01 5.60211E+00
 -1      2659-1.13227E+03-6.59141E+01-1.77879E+01-7.11466E+01 6.14617E-01 8.27296E+00
 -1      2660-2.54107E+03-2.06806E+02-3.57480E+00-5.76530E+02 8.48962E+00 4.85295E-01
 -1      2661-1.72354E+03-1.05932E+02-3.32534E+00-2.70790E+02 5.63087E+00-1.96088E+00
 -1      2662-1.37155E+03-7.60847E+01-1.07575E+01-1.27240E+02 6.22840E+00 8.37855E+00
 -1      2663-2.82455E+03-2.15127E+02-4.99758E+00-6.29404E+02 1.20689E+01-7.99595E-01
 -1      2664-2.18773E+03-1.67418E+02-1.01991E+01-4.37464E+02 9.84062E+00 4.50969E+00
 -1      2665 1.13465E+03 7.15019E+01-1.06908E+01 6.03195E+02-5.23199E+00-2.15005E+00
 -1      2666 3.11039E+03 1.90385E+02-7.32071E+00 1.04391E+03-1.49159E+01-2.26153E+00
 -1      2667 1.06638E+03 4.08975E+01-1.85068E+01 5.87352E+02-5.94203E+00-8.02001E+00
 -1      2668-2.45760E+02 6.41987E+01-7.97791E+00 2.41779E+02 1.12257E+00-4.01886E-01
 -1      2669-1.32973E+03-4.43201E+01-7.29874E+00-1.10881E+02 4.91230E+00 6.49955E-01
 -1      2670 8.38404E+02 3.43532E+02 1.87222E-01 6.41758E+02-3.60615E+00 1.56513E+00
 -1      2671-1.97961E+02 1.56679E+02-3.52107E+00 2.16674E+02-1.46705E+00 1.59960E+00
 -1      2672 1.52941E+03 4.48157E+02-6.57122E-01 9.26263E+02-4.82634E+00-3.51824E+00
 -1      2673 4.60155E+02 2.67069E+02-6.27139E+00 5.01978E+02-1.59864E+00-1.72326E+00
 -1      2674 4.39281E+02 2.43298E+02-1.42678E+01 4.84973E+02-3.02026E+00-6.06591E+00
 -1      2675 4.28582E+03 7.59606E+01-7.37004E+00 1.00729E+03-1.24987E+01-6.14053E+00
 -1      2676 5.59196E+03 1.65343E+02 3.51007E-01 1.25893E+03-1.32544E+01 1.58924E-01
 -1      2677 5.50043E+03 1.79959E+02 3.75336E+00 1.28006E+03-4.55350E+00-2.83626E+00
 -1      2678-1.09608E+03-2.63564E+01-9.03415E+00-5.69295E+01 2.87410E+00 8.13891E-01
 -1      2679 2.35976E+03 9.77204E+01-1.64538E+01 8.42571E+02-1.17078E+01-5.37703E+00
 -1      2680-3.95832E+03-2.44694E+02 2.77803E-01-6.94055E+02-8.76627E+00-1.61737E-01
 -1      2681-3.89613E+03-2.44673E+02-2.10054E+00-7.08437E+02-1.36299E+01-4.39625E+00
 -1      2682-5.13136E+03-2.88408E+02 2.25579E+00-9.56515E+02-4.68612E+00-2.96771E+00
 -1      2683-5.05563E+03-2.93043E+02 2.22381E+00-9.73541E+02-1.30209E+01 2.06199E+00
 -1      2684-1.49149E+03-1.24854E+02-1.72387E+01-1.03491E+00-6.85861E+00-6.44907E+00
 -1      2685-2.09012E+03-1.49086E+02-1.88677E+01-1.91235E+02-5.82583E+00 2.47589E+00
 -1      2686-2.64411E+02-3.97343E+01-2.05106E+01 2.76380E+02 1.00324E+00 1.14110E+00
 -1      2687-3.28724E+03-1.93958E+02-1.24571E+01-4.50645E+02-1.59020E+01-2.27693E+00
 -1      2688-1.45948E+03-8.62341E+01-1.06244E+01 1.89756E+01-5.90912E+00-9.72763E-02
 -1      2689-3.83023E+03-2.56548E+02-2.92838E+00-7.30438E+02-5.84776E+00 2.22057E+00
 -1      2690-3.88954E+03-2.53127E+02-7.56713E+00-7.06604E+02 4.29351E+00 6.19860E+00
 -1      2691-4.84940E+03-2.98342E+02 2.65918E+00-1.01441E+03 9.79558E+00 1.41293E+00
 -1      2692-4.77466E+03-2.98610E+02 1.60381E+01-1.03483E+03 3.69077E+00 1.23317E+00
 -1      2693-6.45182E+02 7.17775E+01 3.19029E+00-9.36289E+01 2.59380E+00-5.64463E-01
 -1      2694-1.65107E+02 2.34446E+02 2.47220E+00 1.92863E+02 1.51560E+00-1.11599E+00
 -1      2695-4.32924E+02 1.51719E+02-6.89436E-01 4.41467E+01-4.48953E-01 1.13799E+00
 -1      2696-4.39248E+02 1.25034E+02-6.73984E+00 3.02113E+01 3.14124E+00 3.20787E+00
 -1      2697-8.92352E+02-2.23061E+01 5.19287E-01-2.36209E+02 1.50159E+00 4.76108E+00
 -1      2698 3.65372E+02 3.44927E+02-5.48059E+00 4.49653E+02-8.31943E-01 1.87233E+00
 -1      2699-1.72207E+02 2.29740E+02-4.42453E+00 1.91660E+02-2.12647E+00 9.86715E-01
 -1      2700 6.39569E+02 4.23384E+02-1.85035E+00 5.78803E+02 5.10436E+00 3.56600E+00
 -1      2701 1.11603E+02 3.13673E+02-8.91870E-01 3.33271E+02 4.87566E-01 4.42241E-01
 -1      2702 1.34083E+02 3.04394E+02 4.97053E+00 3.29544E+02 1.91569E+00 3.54239E+00
 -1      2703-1.14880E+03-1.98044E+02-5.54669E-01-4.81344E+02 3.87559E+00 4.23251E+00
 -1      2704-1.04387E+03-1.31923E+02 4.58463E-02-3.87467E+02-1.84553E+00-1.66698E+00
 -1      2705-1.08727E+03-1.43157E+02-4.49973E+00-4.00561E+02-6.04493E-01 5.15101E+00
 -1      2706-1.24279E+03-2.11987E+02 6.12755E+00-5.34339E+02 4.06850E+00 1.78685E+00
 -1      2707-1.29590E+03-2.26073E+02 1.47276E+00-5.54726E+02 1.43836E+00 2.08356E+00
 -1      2708-4.23962E+02 1.62463E+02-1.20554E+00 4.44338E+01 1.05710E+00 2.20013E+00
 -1      2709 9.24718E+02 4.25348E+02 8.22977E-03 6.59050E+02-2.27657E-03-2.38927E+00
 -1      2710 9.63299E+02 4.39780E+02 3.30515E+00 6.77746E+02 5.42071E+00 1.76143E+00
 -1      2711 1.23657E+03 4.86979E+02-6.60016E-01 7.98238E+02 2.76172E+00 2.88260E-02
 -1      2712 1.18536E+03 4.72388E+02-2.49199E+00 7.73928E+02 1.78223E-01 4.26528E+00
 -1      2713 1.51131E+03 4.95940E+02 1.15258E+00 9.11390E+02-5.56708E+00-3.78114E+00
 -1      2714 1.46140E+03 4.85593E+02-1.69048E+00 8.92121E+02-3.59766E-01 2.72454E+00
 -1      2715 1.89761E+03 5.75866E+02-2.17310E+00 1.07909E+03-1.88700E+00-4.16440E+00
 -1      2716 2.69535E+02 2.97698E+02-1.22663E-01 4.10651E+02-3.37661E+00-6.25093E+00
 -1      2717 1.95493E+03 5.87060E+02-9.56292E-02 1.10268E+03-4.63069E+00-4.21335E-02
 -1      2718-1.90088E+02 1.96294E+02-5.57882E+00 2.04634E+02 2.15613E+00 4.74261E-01
 -1      2719 6.24550E+02 3.53953E+02-6.41198E+00 5.70154E+02 5.33877E-01-2.90998E-01
 -1      2720 2.59999E+02 3.12808E+02-2.58103E+00 4.16554E+02-4.66856E-01 9.11373E-01
 -1      2721 1.06137E+03 4.67298E+02-3.49685E+00 7.71756E+02-5.04297E+00-2.62420E+00
 -1      2722-2.30975E+03-1.46915E+02-1.18587E+01-1.28042E+02-9.79881E+00 2.45475E+00
 -1      2723-3.46176E+03-1.98749E+02-8.64961E+00-3.97747E+02-1.23995E+01-6.20227E-01
 -1      2724-1.54536E+03-1.67075E+02-3.45256E+01 4.21256E+00-5.00206E+00-4.49974E+00
 -1      2725-1.47099E+03-1.11605E+02-1.28552E+01 2.27874E+01-7.07395E+00-1.02509E+00
 -1      2726-4.28986E+03-2.29125E+02-1.21839E+01-5.86342E+02-5.74494E+00-2.98559E+00
 -1      2727-4.22614E+03-2.29092E+02-4.51301E+00-6.13347E+02-1.61684E-01 2.64999E+00
 -1      2728-5.36003E+03-2.42759E+02 3.64757E+00-8.77563E+02-1.19936E+01-6.81733E-01
 -1      2729-5.28219E+03-2.44763E+02 1.46744E+01-9.06467E+02-6.97986E+00-4.86594E+00
 -1      2730 3.93470E+03 1.64278E+02-4.58505E+00 1.09649E+03 5.52752E+00-2.53259E+00
 -1      2731 3.86660E+03 1.76850E+02-8.40053E+00 1.12316E+03-4.02285E+00-7.25839E+00
 -1      2732 5.32191E+03 2.32570E+02 1.19908E+01 1.33320E+03-6.17076E+00-4.30518E+00
 -1      2733 5.23757E+03 2.42889E+02 3.61654E-03 1.35962E+03-8.49495E+00-2.58275E+00
 -1      2734-9.84173E+02 4.40745E+00-2.81191E+00-6.38264E+01 2.36742E+00-3.08952E+00
 -1      2735 2.04295E+03 4.93651E+02-6.49032E-01 1.06895E+03 2.28059E+00 1.60879E+00
 -1      2736 1.97971E+03 4.92911E+02-4.94795E+00 1.06061E+03-2.25853E+00-5.97558E+00
 -1      2737 2.79248E+03 6.03621E+02 6.08605E+00 1.34241E+03-4.93874E+00-3.83218E+00
 -1      2738 2.72405E+03 6.05178E+02 1.49532E+00 1.33341E+03-2.05655E+00-1.47743E+00
 -1      2739-2.14215E+03-2.93042E+02 1.37223E+00-7.40764E+02-4.64509E+00 3.25064E+00
 -1      2740-2.09240E+03-2.83651E+02 4.96939E-01-7.29177E+02-7.73601E+00-2.78826E+00
 -1      2741-2.79017E+03-4.30171E+02-3.80324E+00-1.03664E+03-2.59221E+00-3.02580E+00
 -1      2742-2.73232E+03-4.25215E+02-3.00238E+00-1.02348E+03-5.42176E+00 2.03561E+00
 -1      2743-8.39688E+02 2.63827E+01-8.23476E-01-6.87155E+01-4.91104E+00-5.07086E+00
 -1      2744-1.15393E+03-5.31429E+01-8.37640E+00-2.30026E+02-6.89663E-01 6.77923E-01
 -1      2745-2.00859E+02 1.52632E+02-9.30436E+00 2.18060E+02 2.49846E+00 1.88925E-01
 -1      2746-8.44623E+02 4.45659E+01-2.55842E+00-5.67590E+01-3.40468E+00-1.15283E+00
 -1      2747-1.80600E+03-1.70608E+02-5.52034E+00-5.14934E+02-9.06943E+00-2.71508E+00
 -1      2748 1.71423E+03 6.32928E+01-1.89274E+01 7.09401E+02 4.76774E+00-1.12621E+00
 -1      2749-2.63472E+02-2.62169E+01-2.02626E+01 2.74145E+02-2.38337E+00-1.40226E+00
 -1      2750 2.84472E+03 1.73389E+02-1.11738E+01 9.95557E+02 1.27978E+01 3.70853E+00
 -1      2751 8.75136E+02 8.08109E+01-1.01951E+01 5.59634E+02 3.48026E+00-8.16420E-01
 -1      2752 8.41739E+02 2.93151E+01-1.58098E+01 5.45399E+02 6.47102E+00 5.84514E+00
 -1      2753-3.18329E+03-2.93796E+02 7.44424E-01-8.14802E+02-8.41220E+00 1.06234E+00
 -1      2754-3.12575E+03-2.90386E+02-5.44798E-01-8.16788E+02-1.17857E+01-4.01790E+00
 -1      2755-4.13995E+03-3.85152E+02-9.62421E-01-1.12290E+03-4.38738E+00-1.66985E+00
 -1      2756-4.06384E+03-3.83754E+02 2.33144E+00-1.12362E+03-7.99644E+00-1.86036E-01
 -1      2757-1.20750E+03-6.21341E+01-1.13971E+01-5.86636E+01-6.66536E+00-6.76158E+00
 -1      2758-1.68601E+03-1.16062E+02-1.29775E+01-2.56473E+02-3.96631E+00 2.55244E+00
 -1      2759-2.35759E+02 5.49629E+01-1.53826E+01 2.53367E+02 8.56906E-01 1.09161E+00
 -1      2760-2.64652E+03-1.94749E+02-7.50565E+00-5.57744E+02-9.95319E+00-1.53853E+00
 -1      2761-1.19662E+03-3.07250E+01-7.18437E+00-4.31229E+01-4.87284E+00 1.08500E+00
 -1      2762 3.78947E+03 1.92187E+02-2.95683E+00 1.13263E+03 7.90441E+00 5.22073E-01
 -1      2763 3.86092E+03 1.82944E+02-4.67443E+00 1.12002E+03 1.26143E+01 4.95397E+00
 -1      2764 4.93835E+03 2.98852E+02-6.56018E-01 1.41180E+03 3.66550E+00 3.62484E+00
 -1      2765 5.02695E+03 2.86900E+02 2.78408E-01 1.39900E+03 1.07625E+01-7.51437E-01
 -1      2766 3.11673E+03 3.49749E+02-2.59659E+00 1.19279E+03 5.28977E+00-3.15649E+00
 -1      2767 3.05197E+03 3.59724E+02-5.87111E+00 1.20265E+03-2.89388E+00-6.58002E+00
 -1      2768 4.22918E+03 4.45322E+02 1.21335E+01 1.48536E+03-3.88154E+00-2.91482E+00
 -1      2769 4.14954E+03 4.52593E+02 1.23363E+00 1.49314E+03-5.70366E+00-1.67502E+00
 -1      2770 7.06380E+02 1.11517E+02-2.04958E+01 5.38730E+02-1.77042E-01-8.11282E+00
 -1      2771-2.17943E+02 1.36128E+02-1.01178E+01 2.29867E+02 3.02418E+00-2.54212E-01
 -1      2772 9.95759E+02 3.04514E+02-9.41231E+00 6.90393E+02-1.02643E+00-4.00914E-01
 -1      2773 1.67284E+03 4.41909E+02-4.75617E+00 9.56145E+02-8.91031E+00-4.34884E+00
 -1      2774 4.70953E+02 2.46062E+02-3.90231E+00 4.93698E+02-1.46660E+00-3.30249E+00
 -1      2775 4.65373E+02 2.70087E+02-4.49136E+00 5.03027E+02-2.34127E+00-6.32829E-01
 -1      2776-1.09173E+03-1.79901E+01-1.03374E+01-6.48107E+01 2.23782E+00 1.65992E-01
 -1      2777 2.98165E+03 3.68526E+02-1.39296E+00 1.19691E+03 7.84819E+00-3.24694E-01
 -1      2778 3.04551E+03 3.65154E+02-1.88955E+00 1.19898E+03 1.11437E+01 4.35527E+00
 -1      2779 3.96330E+03 4.83238E+02 4.41429E-01 1.48934E+03 8.14485E+00-8.27944E-01
 -1      2780 6.54205E+02 1.58523E+02-8.86075E+00 5.42843E+02 6.29211E+00 5.40274E+00
 -1      2781 3.88377E+03 4.88289E+02-2.36149E+00 1.48605E+03 2.63127E+00 3.59707E+00
 -1      2782 1.33777E+03 2.07180E+02-1.49327E+01 7.35050E+02 2.72769E+00-1.19511E+00
 -1      2783-2.33528E+02 6.45701E+01-1.50195E+01 2.50536E+02-2.05322E+00-1.00120E+00
 -1      2784 6.68569E+02 1.97391E+02-5.40577E+00 5.53227E+02 3.09250E+00-4.18398E-01
 -1      2785 2.23210E+03 3.39893E+02-7.61581E+00 1.03403E+03 9.82454E+00 2.92575E+00
 -1      2786 3.57403E+03 3.82112E+01-9.65516E+00 9.22257E+02-1.33529E+01-5.12257E+00
 -1      2787 1.28594E+03-2.24623E+01-1.54326E+01 5.59626E+02-5.93963E+00-4.54090E+00
 -1      2788 1.25080E+03-8.94345E+01-3.50927E+01 5.30215E+02-5.61268E+00-7.81731E+00
 -1      2789-3.06235E+03-3.01105E+02-2.57610E+00-8.23278E+02-5.40328E+00 3.54197E+00
 -1      2790-3.12106E+03-2.98249E+02-5.52391E+00-8.12653E+02 2.80752E+00 6.38870E+00
 -1      2791-3.80866E+03-3.88093E+02 1.21610E+01-1.13855E+03 4.63615E+00 2.73981E+00
 -1      2792-3.87869E+03-3.85865E+02 2.13835E+00-1.13087E+03 5.24822E+00 7.75086E-01
 -1      2793-2.41465E+03-3.07726E+02-6.84133E+00-7.79092E+02-1.61028E+00-3.64447E+00
 -1      2794-2.35930E+03-3.05113E+02-1.28480E+00-7.76848E+02 9.15454E-01 1.79341E+00
 -1      2795-2.97862E+03-4.14105E+02 2.98291E+00-1.06933E+03-2.59762E+00-5.67177E-01
 -1      2796-2.91134E+03-4.11596E+02 8.84723E+00-1.06290E+03-5.58591E+00-3.28802E+00
 -1      2797-8.84187E+02-9.63241E+00-1.59190E+01-6.92083E+01-3.69300E+00-4.70672E+00
 -1      2798-2.82680E+03-2.92493E+02 2.95352E-01-8.13151E+02-9.30024E-01-3.05278E+00
 -1      2799-2.70347E+03-3.07599E+02-5.81403E+00-8.06913E+02-9.07346E-01-1.62038E+00
 -1      2800 4.94657E+03-1.00274E+02-1.95701E+01 7.32574E+02-1.38326E+01-1.62429E+01
 -1      2801 5.04256E+03-1.05349E+02-3.04505E+00 6.88343E+02-9.52026E-01 2.02652E+00
 -1      2802 6.83186E+03-2.98438E+01 8.30460E+00 8.80387E+02-7.92504E+00-6.73145E+00
 -1      2803 1.37450E+03-1.63527E+02-3.25170E+01 4.95527E+02-1.10308E+01-7.84268E+00
 -1      2804 6.77272E+03-1.26341E+01-4.47332E+00 9.16225E+02-1.94535E+01-1.14710E+01
 -1      2805 5.30078E+03 2.96704E+02-2.46440E+00 1.44571E+03-1.16078E+01-2.10084E+00
 -1      2806 5.34717E+03 2.73749E+02 1.03231E-01 1.42427E+03-5.28130E+00-5.83809E+00
 -1      2807 3.21275E+03 1.44786E+02-7.45736E+00 1.01843E+03 1.02804E+01 3.64201E+00
 -1      2808 1.14486E+03-1.16352E+01-3.14168E+01 5.66788E+02 6.15364E+00 8.54029E+00
 -1      2809 1.18963E+03 5.74804E+01-8.96064E+00 5.91205E+02 7.12903E+00 2.73758E+00
 -1      2810 7.53953E+01 2.86624E+02-3.69635E-01 2.82865E+02 2.85882E+00 1.78202E-01
 -1      2811 2.62249E+02 3.33322E+02 2.37309E+00 3.77406E+02-1.54699E+00-4.81101E+00
 -1      2812 8.01525E+00 2.91305E+02-7.60815E-02 2.66309E+02-3.16238E+00-3.09085E+00
 -1      2813 2.77806E+01 2.77522E+02-3.31762E+00 2.65859E+02-3.40181E-01-4.16736E+00
 -1      2814-5.13028E+03-2.95866E+02 1.25654E+01-1.05333E+03-4.36555E+00-5.12404E+00
 -1      2815-1.60598E+03-1.44512E+02-2.92243E+01-8.92987E+01-5.76093E+00-8.66723E+00
 -1      2816-5.07120E+03-2.99979E+02 1.10458E+01-1.06595E+03-1.19116E+01-1.07011E+00
 -1      2817-3.34824E+03-2.01417E+02-6.63839E+00-5.35485E+02-1.12228E+01 4.78890E-01
 -1      2818-1.56676E+03-8.84381E+01-8.50163E+00-6.13417E+01-8.49606E+00-7.07249E-01
 -1      2819-5.17886E+03-3.17714E+02 1.29914E+00-1.05008E+03 5.43692E+00 4.96657E+00
 -1      2820-5.22136E+03-3.03392E+02-2.23795E+00-1.03133E+03 1.22364E+01-5.71864E-02
 -1      2821-5.35791E+02 1.24053E+02 2.36850E+00-6.40145E+00 1.14359E+00 2.57450E+00
 -1      2822-1.02903E+03-4.99739E+01-1.95682E-01-3.06946E+02 4.23497E+00 2.35842E+00
 -1      2823-5.30861E+02 1.08334E+02 6.81293E+00-2.58027E+01 1.53905E+00 2.57872E+00
 -1      2824 2.13521E+02 3.31651E+02-3.07872E+00 3.88147E+02 2.62982E+00 2.33480E+00
 -1      2825 7.82996E+02 4.44436E+02-1.06039E+00 6.51906E+02 1.72328E+00 3.40386E+00
 -1      2826 2.32178E+02 3.03986E+02-9.96919E+00 3.83405E+02 2.30597E+00 1.78648E+00
 -1      2827-1.46558E+03-2.79507E+02-4.04387E+00-6.33547E+02 1.24849E+00 2.83281E+00
 -1      2828-1.43714E+03-2.76209E+02-6.06103E+00-6.19470E+02 3.33633E+00 8.28770E+00
 -1      2829 1.38830E+03 5.24601E+02 8.61872E+00 8.64716E+02 5.80700E+00 7.18477E+00
 -1      2830 1.41713E+03 5.25593E+02 4.88749E+00 8.79947E+02 3.83464E+00 2.51207E+00
 -1      2831 5.45220E+03 2.68442E+02 8.37222E+00 1.41009E+03 1.21407E+01 2.74749E+00
 -1      2832 5.38561E+03 2.78088E+02 8.46424E+00 1.42262E+03 4.24126E+00 5.03789E+00
 -1      2833 4.25857E+03 4.86793E+02 7.43411E+00 1.54265E+03 3.52788E+00 5.51725E+00
 -1      2834 8.96972E+02 1.31127E+02-2.32077E+01 5.89776E+02 4.93156E+00 7.69602E+00
 -1      2835 4.31607E+03 4.77822E+02 7.48024E+00 1.54381E+03 8.99748E+00 2.10974E+00
 -1      2836 9.20878E+02 1.86444E+02-5.63614E+00 6.07507E+02 5.54765E+00 2.06992E+00
 -1      2837 2.53201E+03 3.25608E+02-5.62343E+00 1.09106E+03 7.20599E+00 2.84438E+00
 -1      2838-4.19635E+03-4.04065E+02-2.73751E+00-1.18239E+03 9.12856E+00 5.83942E-01
 -1      2839-4.15345E+03-4.16814E+02-1.05446E+00-1.18990E+03 4.69497E+00 4.84957E+00
 -1      2840 5.17666E+02 3.02736E+02-3.12597E+00 5.25262E+02-1.57044E+00-2.45720E+00
 -1      2841 1.53877E+03 4.84645E+02-2.36446E+00 9.40082E+02-7.00498E+00-2.25256E+00
 -1      2842 5.02101E+02 2.89960E+02-1.61012E+00 5.07328E+02-3.44666E+00-4.24020E+00
 -1      2843-4.10903E+03-3.96446E+02 9.78086E+00-1.18998E+03-3.25551E+00-5.18548E+00
 -1      2844-1.29407E+03-9.12490E+01-2.24995E+01-1.33275E+02-5.09610E+00-8.47551E+00
 -1      2845-4.05588E+03-3.99146E+02 9.68266E+00-1.19229E+03-8.36296E+00-3.04240E-01
 -1      2846 4.17587E+03 4.98207E+02-2.43345E+00 1.54475E+03-8.57669E+00-1.93216E+00
 -1      2847 4.22019E+03 4.79193E+02-9.85157E-01 1.53825E+03-4.82825E+00-5.18977E+00
 -1      2848 8.24495E+02 1.71923E+02-1.12780E+01 5.88303E+02-5.40831E+00-7.31092E+00
 -1      2849-1.27538E+03-4.40530E+01-5.37277E+00-1.12779E+02-6.18291E+00-6.27039E-01
 -1      2850-2.68789E+03-2.17003E+02-2.99837E+00-6.22326E+02-8.07113E+00-9.69301E-01
 -1      2851-9.42972E+02-1.42250E+02 2.40438E-01-3.86300E+02 4.02878E-01 4.78998E+00
 -1      2852-3.76141E+02 1.75379E+02 1.76475E+00 6.50259E+01 2.95174E+00 1.39551E+00
 -1      2853 5.96872E+03 1.53970E+02 6.38640E+00 1.26312E+03-5.08313E+00-4.96180E+00
 -1      2854 6.03762E+03 1.40861E+02 7.60477E+00 1.23983E+03-1.59891E+01-1.12568E+00
 -1      2855 1.91981E+03 4.41178E+02-3.02289E+00 1.03601E+03-5.87844E+00-3.57904E+00
 -1      2856 6.61796E+02 2.74286E+02-7.54809E+00 5.72807E+02-4.02563E+00-2.96116E+00
 -1      2857 6.66290E+02 2.32400E+02-1.91102E+01 5.58275E+02-4.06943E+00-1.48383E+00
 -1      2858 1.24379E+03 4.81410E+02-1.53760E+00 8.47527E+02-2.57409E+00-3.61159E+00
 -1      2859 3.93400E+02 3.27246E+02-4.71488E+00 4.78354E+02-2.80793E+00-2.11024E+00
 -1      2860 4.06334E+02 2.94531E+02-9.53063E+00 4.73830E+02-4.07077E+00-4.70348E+00
 -1      2861 2.73682E+03 6.14845E+02 5.81689E-01 1.35061E+03-3.01519E+00-3.51096E+00
 -1      2862 2.69706E+03 6.22272E+02-2.17229E+00 1.34304E+03-3.79153E+00-1.73653E+00
 -1      2863 2.14078E+03 6.13583E+02 4.07097E+00 1.17002E+03-2.50191E+00-3.69878E+00
 -1      2864 2.17786E+03 6.12810E+02 5.41337E+00 1.18359E+03-4.58548E+00-1.27556E+00
 -1      2865 3.01794E+02 2.73075E+02-1.25186E+00 3.31645E+02 2.59046E-01 1.12034E+00
 -1      2866 3.43205E+02 2.94169E+02 3.58896E+00 3.54107E+02-4.08259E+00-4.00545E+00
 -1      2867 5.39334E+02 3.17355E+02 1.56837E+00 4.27016E+02-1.91061E+00-3.65699E+00
 -1      2868 5.68672E+02 3.24923E+02 4.55979E+00 4.43122E+02-2.17455E+00-1.01542E+00
 -1      2869 2.31093E+03 4.77114E+02 9.25286E-01 1.12799E+03-8.51172E+00-2.17356E+00
 -1      2870 2.25828E+03 4.73659E+02-1.68224E+00 1.11836E+03-6.10380E-01 2.96202E+00
 -1      2871 2.99723E+03 5.86213E+02 4.41494E-01 1.38851E+03-5.85352E+00-5.84794E-01
 -1      2872 2.92552E+03 5.84821E+02-2.01548E+00 1.37399E+03-6.91860E-01-3.75107E+00
 -1      2873 1.32615E+03 2.19362E+02-3.90347E+00 7.29152E+02-5.03089E+00 1.21242E+00
 -1      2874-2.50092E+02 5.41600E+01-8.49825E+00 2.44733E+02 1.71797E-01 3.84971E-01
 -1      2875 2.35422E+03 2.99324E+02-4.74561E+00 1.03476E+03-8.23416E+00-1.71711E+00
 -1      2876 7.42733E+02 1.41873E+02-1.05813E+01 5.53812E+02-2.16742E+00-1.44387E+00
 -1      2877-2.94797E+02-2.01060E+02-2.36604E+01 2.88549E+02-1.55404E+01-1.06661E-02
 -1      2878 2.21855E+03-1.53808E+02-1.93737E+01 5.29251E+02-2.03588E+01-4.63995E+00
 -1      2879 1.48150E+03-1.31724E+02-1.48717E+01 4.81725E+02-1.53830E+01-4.69726E+00
 -1      2880 3.97876E+03-8.30577E+01-1.53464E+01 7.27729E+02-2.32620E+01-1.08559E+01
 -1      2881-2.75535E+03-1.83394E+02-1.38816E+01-3.50560E+02-1.12874E+01-6.19555E+00
 -1      2882-7.87479E+02 1.69703E+01 3.06301E+00-1.82289E+02 6.95465E+00 6.38235E+00
 -1      2883 5.32029E+02 3.81938E+02-4.88997E-01 5.22077E+02 4.07719E+00 7.44947E+00
 -1      2884-3.66568E+03-4.13306E+02 4.93491E+00-1.13470E+03 2.56278E+00 2.57096E+00
 -1      2885-3.21261E+03-4.57326E+02-4.92489E+00-1.14060E+03-4.06573E+00-7.94669E+00
 -1      2886-3.24983E+03-4.48298E+02-1.84477E+00-1.14328E+03-5.63778E+00-1.08394E+00
 -1      2887-1.06856E+03-2.01758E+01-1.07640E+00-1.33683E+02-3.26041E+00-2.94499E+00
 -1      2888-3.34687E+03-4.14658E+02 5.13535E+00-1.11228E+03 2.59878E+00 3.32951E+00
 -1      2889 2.33090E+03 1.05487E+02-1.40546E+01 8.50121E+02 1.02760E+01 6.70991E+00
 -1      2890-2.09094E+02 1.39978E+02-3.01855E+00 2.29648E+02-1.90620E+00 3.82586E-01
 -1      2891-1.33037E+03-6.25248E+01-4.83697E-01-2.56626E+02-5.57922E+00 6.00946E-01
 -1      2892-8.58101E+02 2.85678E+01-4.00500E+00-5.27771E+01-1.33703E+00 2.89468E-02
 -1      2893-1.94621E+03-1.83304E+02-1.47298E+00-5.37554E+02-4.28848E+00-3.04028E+00
 -1      2894 1.83597E+03 2.65660E+02-9.45594E+00 8.90981E+02 8.12863E+00 6.05034E+00
 -1      2895-3.14925E+02 1.95767E+02-2.02364E+00 8.90652E+01 4.06174E-01 1.92919E+00
 -1      2896-1.01790E+02 2.70091E+02 4.04256E-01 1.90427E+02-1.32922E+00-4.99188E+00
 -1      2897 1.55008E+02 2.39727E+02-8.62249E-01 2.50274E+02-6.89016E-01-7.02512E-01
 -1      2898-9.84674E+01 2.70458E+02 4.07317E-01 1.95883E+02 7.70892E-01 8.03654E+00
 -1      2899-2.22006E+03-1.74448E+02-1.32215E+01-4.32420E+02-7.03272E+00-6.91777E+00
 -1      2900-1.57932E+02 2.50592E+02-6.85656E-01 1.75446E+02-2.46426E+00 1.79092E+00
 -1      2901-1.96980E+02 2.19435E+02 1.67312E+00 1.52615E+02 6.31636E+00 5.33246E+00
 -1      2902 2.57159E+03 5.05487E+00-2.38352E+01 7.81014E+02-1.00977E+01-8.00682E+00
 -1      2903 1.85244E+03 2.59549E+02-1.23581E+01 8.87309E+02-9.22920E+00-5.07051E+00
 -1      2904-1.69474E+03-1.39418E+02-5.82737E+00-4.22912E+02-8.06759E+00-6.48163E+00
 -1      2905 1.37306E+03 3.61916E+02-1.05007E+01 8.31845E+02-5.19143E+00-8.14317E+00
 -1      2906 8.65524E+02 1.95009E+02-7.04061E+00 6.06210E+02-3.88668E+00-2.38977E+00
 -1      2907 2.42333E+03 3.59544E+02-4.44853E+00 1.08514E+03-1.12853E+01-1.71437E+00
 -1      2908 3.25111E+03 6.11741E+02 1.00569E+01 1.46332E+03-6.94225E+00-8.23020E+00
 -1      2909 3.29711E+03 6.03385E+02 6.94351E+00 1.46879E+03-7.94200E+00-1.35489E+00
 -1      2910 1.18425E+03 3.94443E+02-4.35614E+00 7.81618E+02-6.69490E+00-5.06722E+00
 -1      2911-2.68399E+03-4.25410E+02 6.67888E+00-1.04765E+03-5.59753E+00 5.80943E-02
 -1      2912-2.72611E+03-4.26751E+02 8.93254E+00-1.05568E+03-2.56853E+00-5.03862E+00
 -1      2913-8.76253E+02-5.09819E+00-1.25642E+01-1.06215E+02-4.34717E+00-6.64416E+00
 -1      2914 8.73688E+02 4.06708E+02-2.60385E+00 6.79804E+02-4.37497E+00-6.67965E+00
 -1      2915-8.78271E+02 2.32276E+01-2.96966E+00-9.38199E+01-4.14780E+00-5.70118E-01
 -1      2916-1.80268E+03-1.92009E+02-2.72375E+00-5.45329E+02-3.28264E+00-3.57924E+00
 -1      2917-3.80391E+03-1.80914E+02-1.02238E+01-3.91888E+02-1.81372E+01-2.18142E+00
 -1      2918-1.75492E+03-1.08777E+02-7.08741E+00 1.12408E+01-6.89318E+00-2.43882E+00
 -1      2919-1.82839E+03-1.55424E+02-1.80737E+01 6.41950E-01-6.45286E+00-1.63145E+00
 -1      2920-2.18214E+03-2.04691E+02-2.46609E+00-6.08691E+02-8.17584E+00-9.39066E-02
 -1      2921-1.04999E+03 1.61371E+00-1.71751E+00-1.11809E+02-2.43243E+00-1.56862E+00
 -1      2922-5.69793E+03-2.59492E+02-7.30695E-01-8.85550E+02-4.84851E+00-7.17257E+00
 -1      2923-5.73878E+03-2.45235E+02-3.59572E-01-8.60351E+02-1.42971E+01 1.17701E+00
 -1      2924 6.71132E+03-6.02123E+01 4.78833E-01 8.07232E+02-3.10269E+01-1.95048E+01
 -1      2925 1.21257E+03-2.27329E+02-3.70599E+01 4.40763E+02-2.22689E+01-1.64586E+01
 -1      2926 6.82577E+03-5.71265E+01 3.14034E+01 7.66049E+02-2.29431E+01-1.33833E+01
 -1      2927-1.28174E+03-4.13015E+02-2.85746E+02 3.26075E+02-1.94429E+01 3.39618E+01
 -1      2928-1.58031E+03-3.97786E+02-3.80961E+02 3.58603E+02 4.81715E+00-2.73433E+01
 -1      2929-3.48048E+03-5.29458E+02-7.44200E+02 2.34286E+02 8.71095E+01 2.29611E+01
 -1      2930-2.76529E+03-2.08706E+02-1.46623E+02 4.39404E+02 1.15201E+02 1.58710E+01
 -1      2931-3.20779E+03-5.11198E+02-5.96956E+02 1.55982E+02 8.98337E+01 1.21233E+02
 -1      2932 6.63556E+03 2.11738E+02 6.53022E+00 1.38651E+03 1.22269E+01 1.07288E+01
 -1      2933-5.58697E+01 2.82968E+02 2.28103E+00 2.28778E+02-1.28342E+00-2.50593E+00
 -1      2934 1.68579E+02 3.14334E+02-1.69781E+00 3.21113E+02-3.54176E+00-3.94156E+00
 -1      2935-3.63498E+01 2.76344E+02 5.29990E+00 2.27348E+02-3.54045E+00-7.77929E+00
 -1      2936 5.38908E+02 1.20127E+02 3.52761E+02 3.92568E+02 6.43378E-02 1.13667E+00
 -1      2937 3.87172E+03-1.50592E+02-1.57982E+01 6.35388E+02-3.29695E+01-1.59096E+01
 -1      2938 1.31004E+03-1.96554E+02-2.31319E+01 4.23318E+02-2.98808E+01-8.67376E+00
 -1      2939-1.49555E+03-1.19915E+02-1.22747E+00-3.90900E+02-6.89572E+00-5.67033E+00
 -1      2940 4.39095E+02 2.88123E+02-2.28608E-01 3.81040E+02-2.47996E+00-1.39315E+00
 -1      2941 3.92744E+02 2.67798E+02-1.89343E+00 3.55168E+02-5.87976E-01-2.13033E+00
 -1      2942-1.44750E+02 2.47219E+02 4.63598E+00 1.50572E+02-1.18904E+00 1.08395E+00
 -1      2943-1.35226E+02 2.32446E+02-7.01256E-01 1.82887E+02 9.51468E-01 3.47781E+00
 -1      2944-1.43339E+02 2.38614E+02 7.22131E-01 1.71508E+02 1.02941E+00-1.15455E-02
 -1      2945-2.98672E+03-1.81389E+02-1.50344E+01-2.73402E+02-1.63280E+01-6.28548E+00
 -1      2946-1.43971E+02 2.20776E+02 1.77385E+00 1.56015E+02-8.20559E+00-4.99350E+00
 -1      2947-2.01653E+02 2.21497E+02 1.18854E+00 1.47751E+02-6.55012E+00-4.82528E+00
 -1      2948-1.39683E+02 2.29064E+02 1.00592E+01 1.20786E+02-8.25323E+00 1.32452E-01
 -1      2949 3.03670E+03-1.40188E+02-2.30397E+01 6.06442E+02-3.08645E+01-1.44578E+01
 -1      2950 1.36787E+02 2.96904E+02-3.03959E+00 3.10732E+02-1.11533E+00-7.63030E+00
 -1      2951 9.32913E+02 4.22217E+02-1.52273E+00 6.36770E+02 4.38562E+00 7.79482E+00
 -1      2952 3.89721E+02 3.69902E+02 3.45283E-01 4.37155E+02 4.72299E+00 3.30275E+00
 -1      2953 7.78215E+02 3.69639E+02-2.00078E+00 5.54975E+02 1.94857E+00 4.14975E+00
 -1      2954 8.98329E+02 4.08509E+02 3.76381E+00 6.14922E+02 5.46669E+00 4.61955E+00
 -1      2955 3.48240E+02 3.47599E+02-1.67179E+00 4.13658E+02 3.00006E+00 6.01950E+00
 -1      2956 4.73561E+02 3.87301E+02-1.28960E+00 4.93355E+02 8.97405E-01 6.57087E+00
 -1      2957 2.82564E+03 6.87643E+02 1.70289E+00 1.41736E+03 8.01448E+00 1.08990E+01
 -1      2958 2.73647E+03 6.78343E+02-4.54473E-01 1.38713E+03 7.60840E+00 9.50989E+00
 -1      2959 2.78013E+03 6.56784E+02 5.22210E+00 1.38555E+03 8.59842E+00 7.09636E+00
 -1      2960 1.61365E+03 5.14248E+02-4.50439E+00 9.87329E+02 1.96326E+00 1.74160E+00
 -1      2961 1.67825E+03 5.21074E+02-1.41929E+00 1.01464E+03 5.06377E+00 5.05010E+00
 -1      2962 8.68529E+02 4.01451E+02 5.80941E+00 6.02176E+02 3.51453E+00 9.45132E+00
 -1      2963 3.14482E+02 3.52309E+02 1.44738E+00 4.06999E+02 4.39866E+00 3.02048E+00
 -1      2964 7.66575E+02 3.69785E+02 2.46271E+00 5.50193E+02 6.34398E+00 8.39207E+00
 -1      2965 6.81371E+02 3.46048E+02-2.05584E+00 5.03943E+02 4.00505E+00 9.31135E+00
 -1      2966-2.32853E+02 2.02337E+02 8.81337E+00 1.02090E+02 1.22639E+00 3.03607E+00
 -1      2967-2.53999E+02 2.10754E+02 7.89652E-01 1.08191E+02 1.65976E-01 1.95244E+00
 -1      2968-2.72933E+02 1.55363E+02 1.82321E+00 6.82378E+01 2.84414E+00 1.13258E+00
 -1      2969-2.00243E+03-2.01562E+02-6.09147E-01 1.17624E+02-4.61239E+01 1.73710E+01
 -1      2970-2.38279E+03-2.70636E+02-3.99480E+01 2.34474E+02-2.23925E+01 2.64678E+01
 -1      2971-4.18117E+03-2.03073E+02-1.01435E+02 1.06940E+02-5.94112E+01 4.36893E+00
 -1      2972 1.11046E+03-1.74817E+02-8.81341E+01 2.51494E+02 1.54261E+01-3.24302E+00
 -1      2973 2.87426E+03 2.50482E+02 5.24949E+02 3.55835E+02 6.03014E+01-4.90231E+01
 -1      2974-1.36860E+02 2.33844E+02 1.16395E+01 1.18136E+02 1.63719E+00 1.09691E+00
 -1      2975-1.46365E+02 2.17848E+02 1.98276E+00 1.46078E+02 6.93640E+00 1.63798E+00
 -1      2976 1.30254E+03-1.91170E+02-3.22727E+01 5.19414E+02 4.05162E+01 2.53745E+01
 -1      2977 7.22752E+03-1.04332E+02 5.48419E+01 6.73329E+02 2.12321E+01 1.37826E+01
 -1      2978 3.72356E+03-2.10997E+02 4.25166E+01 5.75283E+02 8.44807E+01-7.82958E-01
 -1      2979-1.85984E+03-2.28553E+02-3.09539E+01 9.06531E+01-3.98287E+00 9.12621E+00
 -1      2980-1.76898E+03-1.71333E+02-1.22643E+01 9.11726E+01 5.59338E+00 4.92069E-01
 -1      2981-3.00242E+02-1.73966E+02-2.14139E+01 2.84467E+02-7.49096E+00 1.10814E+00
 -1      2982-2.12185E+03-2.25371E+02-3.59811E+01 1.39424E+02-1.35533E+01 1.60401E+01
 -1      2983-2.01261E+03-1.80626E+02-1.23724E+01 1.23482E+02-1.71282E+00 5.46440E+00
 -1      2984-3.55804E+03-2.29119E+02-2.28507E+01-8.33252E+01 5.17200E+00 8.22641E+00
 -1      2985-6.01494E+02 9.17591E+01-9.90263E-01-9.12606E+00-6.08089E-01-1.80910E-01
 -1      2986-6.20763E+02 6.04920E+01-1.23773E+01-3.25379E+01-5.11265E-01-1.95053E+00
 -1      2987-1.78617E+02 1.95535E+02-7.86337E-01 1.97750E+02-2.52632E+00-2.30777E-02
 -1      2988-7.65941E+02 6.23774E+01-2.13274E-02-8.73316E+01-2.05707E+00 2.29099E-01
 -1      2989-7.62269E+02 4.08423E+01 2.14068E+00-9.85289E+01-2.01875E+00-2.00881E+00
 -1      2990-1.18235E+03-7.44152E+01-2.92807E+00-3.20289E+02-3.53058E+00 6.91046E-01
 -1      2991 2.59063E+02 2.54393E+02-1.27780E+00 2.90603E+02 1.69210E+00 1.60095E+00
 -1      2992-1.11118E+02 2.54152E+02-4.03764E+00 2.01448E+02 7.27381E+00 3.85880E+00
 -1      2993-1.59999E+01 2.80706E+02 3.71774E+00 2.33502E+02 3.95021E-01 3.13240E+00
 -1      2994-1.58469E+03-2.33228E+02 1.72890E+00-5.92313E+02 1.34464E+00 1.39223E+00
 -1      2995-1.94300E+03-3.42185E+02 4.44320E+00-8.10006E+02-2.16686E+00-1.10429E+00
 -1      2996-2.17402E+03-3.99186E+02-2.62632E+00-9.02630E+02 1.36640E+00-7.68648E-01
 -1      2997-3.17479E+02-1.95421E+02-6.93200E+01 5.02441E+02 1.40251E+02-7.07316E+00
 -1      2998-2.55961E+03-4.08812E+02 4.78864E+00-9.99462E+02 8.87543E-01 6.47874E-01
 -1      2999-8.07030E+02 1.29023E+01-8.54098E+00-7.53086E+01 1.22897E+00 7.81202E+00
 -1      3000-2.03746E+03-2.84738E+02 2.63527E-01-7.18698E+02-5.28617E+00 3.94264E+00
 -1      3001-2.75737E+03-4.43001E+02 1.02923E+00-1.05817E+03-5.66981E-01-4.78608E+00
 -1      3002-9.45435E+02-3.32291E+00-7.96843E+00-1.26442E+02 5.32691E+00 9.41025E+00
 -1      3003-1.52315E+03-1.29344E+02-5.74798E+00-4.04664E+02 5.54086E+00 2.33305E-01
 -1      3004-6.52276E+03-1.74503E+02 2.75399E+00-3.89230E+02 6.05509E+00-8.45109E+00
 -1      3005-1.94971E+03-2.21683E+02-2.70251E+01 1.67399E+02 1.33778E+01-1.00521E+01
 -1      3006-4.97679E+03-1.88098E+02-5.98940E+00-2.54807E+02-8.31063E+00 2.48612E-01
 -1      3007-6.46736E+03-1.70136E+02 1.62965E+01-5.11626E+02-1.09637E+01 3.51219E+00
 -1      3008-1.99583E+03-2.31790E+02-3.52607E+01 7.22101E+01 5.60529E-01-1.32092E+01
 -1      3009-3.55885E+03-2.34822E+02-2.50136E+01-6.86719E+01-1.38282E+00-9.81928E+00
 -1      3010-7.85662E+02 4.48922E+01-1.92803E+00-5.80881E+01 1.43966E+00 3.71410E-01
 -1      3011-1.97558E+02 1.55968E+02-4.64721E+00 2.09628E+02 2.02566E-01 7.70589E-01
 -1      3012-9.26963E+02 1.96310E+01-3.86575E+00-1.09510E+02 4.25695E+00-2.60058E-01
 -1      3013-1.32505E+03-1.03948E+02 1.51424E+00-3.97117E+02-1.76336E+00-2.15022E+00
 -1      3014-1.51908E+03-1.47604E+02-1.70361E+00-4.78661E+02-5.20351E+00-2.79010E+00
 -1      3015-1.99212E+03-3.52348E+02 1.71282E-01-8.29368E+02-5.19525E+00-6.21344E+00
 -1      3016-2.20882E+03-4.04523E+02 1.49530E+00-9.20501E+02-6.69637E+00-5.56657E+00
 -1      3017-1.89258E+03-1.85362E+02-7.08873E+00 1.69313E+02 1.70168E+01-5.21743E+00
 -1      3018-2.80635E+02-1.82571E+02-1.94662E+01 2.87056E+02 1.68921E+01 4.09531E-01
 -1      3019-1.90387E+03-1.83507E+02-7.32800E+00 8.58896E+01 2.78890E-01-4.44992E-01
 -1      3020 3.82299E+02 3.03463E+02 4.64607E+00 3.76692E+02 1.18441E-01 3.88044E+00
 -1      3021 6.25064E+02 3.42476E+02 4.36408E+00 4.77656E+02-9.51093E-01-7.05023E+00
 -1      3022 2.36501E+03 6.68160E+02 5.67625E+00 1.27230E+03-7.10084E+00-7.61768E+00
 -1      3023 3.07064E+03 6.81721E+02 2.35481E+00 1.48754E+03-6.80180E+00-8.65277E+00
 -1      3024 1.56958E+01 2.95844E+02 9.92558E-01 2.75886E+02-4.55633E+00-1.66862E+00
 -1      3025-4.07601E+03-1.86362E+02-8.93321E+00-1.92256E+02 1.43456E+01 3.54270E+00
 -1      3026-4.35349E+03-1.92512E+02-4.60778E+00-1.41318E+02 7.16292E+00 1.31850E+01
 -1      3027 1.56183E+03 4.97490E+02 3.21234E+00 9.28236E+02-1.09084E+00 5.46637E+00
 -1      3028 2.25110E+03 6.20086E+02 6.12919E+00 1.21167E+03-1.93850E+00-7.11067E+00
 -1      3029 6.64940E+03 2.12680E+02 1.10796E+01 1.38970E+03-1.51274E+01-7.67082E+00
 -1      3030 1.92990E+03 4.98388E+02-5.28897E+00 1.04668E+03 4.09107E+00 3.83830E+00
 -1      3031 2.61598E+03 6.22148E+02-1.19791E-01 1.32070E+03-6.34263E+00-4.58255E+00
 -1      3032-1.99508E+03-1.19812E+02-1.03561E+01-6.04412E+01 1.01789E+01 3.82344E-01
 -1      3033-2.01877E+03-1.72259E+02-2.28914E+01-7.75063E+01 1.26661E+01 6.29225E+00
 -1      3034-4.73087E+02-1.14508E+02-2.22651E+01 2.05274E+02 2.49712E+00-1.35760E+00
 -1      3035-1.80705E+02 1.77704E+02 5.14817E+00 1.21072E+02-9.35891E-01 1.14966E+00
 -1      3036-8.13136E+02 4.25844E+01-3.69692E+00-1.16021E+02 3.18199E+00 8.13337E-01
 -1      3037-7.97731E+02 1.90099E+01-4.64889E+00-1.27020E+02 6.41003E+00 2.63337E+00
 -1      3038-2.31510E+02 1.52594E+02-5.43660E+00 1.50458E+02-4.47313E-01 5.08581E-01
 -1      3039 5.04782E+02 3.19431E+02-2.36987E+00 5.23772E+02 5.50737E-01-4.05241E+00
 -1      3040-1.92858E+02 1.61978E+02-6.95755E+00 2.17109E+02 3.19497E+00-1.62096E+00
 -1      3041-8.76734E+02 2.99565E+01-4.28893E+00-9.27063E+01-4.90335E+00-1.67173E+00
 -1      3042 4.88488E+03-7.27899E+01-1.04294E+01 7.77412E+02 1.00061E+00 4.06589E+00
 -1      3043 6.66564E+03 4.81552E+00 4.55160E+00 9.69551E+02-6.84386E+00-8.65949E+00
 -1      3044 1.31868E+03-3.69405E+01-9.02355E+00 5.57450E+02-7.43819E+00-7.45319E-01
 -1      3045-1.99547E+03-1.28303E+02-6.68718E+00-4.77978E+01 5.90071E+00 7.17269E-01
 -1      3046 4.36123E+03 5.92504E+01 1.75165E-01 9.75388E+02-3.60118E+00 5.18040E+00
 -1      3047 6.14111E+03 1.19656E+02 1.38527E+01 1.20957E+03-6.39400E-01-7.93352E+00
 -1      3048-6.17631E+03-1.80826E+02 1.79983E+01-5.82348E+02 4.24391E+00 2.34466E+00
 -1      3049-4.83688E+03-1.96872E+02-3.01152E+00-3.38001E+02-3.37047E+00-2.12849E+00
 -1      3050-6.50541E+03-1.86738E+02 9.35051E+00-5.06092E+02 2.44884E+00-1.37916E+00
 -1      3051 4.09887E+02 3.24522E+02-2.80900E-02 4.89499E+02-2.82532E+00-9.35636E-01
 -1      3052-8.15945E+02 4.30195E+01 1.49115E+00-1.13076E+02 4.06273E-01 2.28109E+00
 -1      3053-2.98399E+03-4.70868E+02 9.21407E+00-1.17317E+03-8.12880E+00-5.91985E+00
 -1      3054-2.61047E+03-4.15453E+02 1.08072E+00-1.01314E+03 6.17098E+00 7.16869E+00
 -1      3055-2.80647E+03-4.44820E+02 1.20944E+00-1.07080E+03 8.20824E+00 4.47612E+00
 -1      3056 1.45335E+03-1.03479E+02-1.49360E+01 5.05601E+02-7.10967E+00-7.01368E+00
 -1      3057 7.32028E+03 8.66470E+01 8.56934E+00 1.12659E+03 1.55452E+01 1.31033E+01
 -1      3058 7.17855E+03 1.05875E+02 1.12365E+01 1.18310E+03 1.12114E+01 1.43313E+01
 -1      3059 6.57101E+03 7.42014E+01 7.48477E-01 1.11871E+03 1.63234E+01 3.67511E+00
 -1      3060 3.79272E+03 2.65948E+01-8.46326E+00 9.19538E+02 1.97969E+01 4.91759E+00
 -1      3061 3.93058E+03-4.73944E-01-1.16958E+01 8.72818E+02 1.92602E+01 6.35460E+00
 -1      3062-3.86005E+03-4.58117E+02 1.14041E+00-1.25524E+03-5.12666E+00 2.06511E+00
 -1      3063-3.67947E+03-4.61746E+02 1.19318E+01-1.24021E+03-2.05020E+00-6.27415E-02
 -1      3064-1.32880E+03-7.27824E+01-1.37850E+01-1.90492E+02-6.12916E+00-1.41976E+00
 -1      3065-1.72949E+03-1.64825E+02-1.81592E-01-5.10295E+02 3.08805E+00 1.68088E+00
 -1      3066-1.89929E+03-1.89568E+02-2.53407E+00-5.62805E+02 7.35176E+00 1.58298E+00
 -1      3067-6.14281E+03-2.34749E+02 1.63373E+01-9.93094E+02-1.41138E+01-3.20841E+00
 -1      3068-1.26549E+03-4.17362E+01-6.48873E+00-1.12279E+02-8.16673E+00-1.62786E+00
 -1      3069-6.40844E+03-1.72500E+02 1.20596E+01-4.38905E+02-3.75407E+00-2.65129E+01
 -1      3070-6.36307E+03-1.66228E+02 1.30903E+01-5.59383E+02-1.47432E+01-1.05955E+01
 -1      3071-2.85277E+02-9.66847E+01-1.97987E+01 2.86716E+02-2.76301E+00-8.15898E-02
 -1      3072-1.78481E+03-1.24338E+02-1.24857E+01 3.10214E+01-6.88305E+00-3.52685E+00
 -1      3073-6.29106E+03-1.72100E+02 1.97598E+01-6.00699E+02-4.79935E-01-3.04843E+00
 -1      3074-5.79506E+03-2.60450E+02 1.52721E+01-9.85454E+02 3.07320E+00-1.85278E+00
 -1      3075-3.52615E+03-2.11919E+02-2.50996E+01-3.56429E+02 6.15474E+00-2.54166E-01
 -1      3076-3.97294E+03-4.08203E+02 5.37878E+00-1.19290E+03 1.24751E+00-4.19856E+00
 -1      3077 1.19721E+03 3.09202E+01-1.08409E+01 5.92132E+02 8.68717E+00 4.78738E+00
 -1      3078-1.07983E+03-1.88032E+02-1.95895E-01-4.54555E+02 1.67349E+00 3.12470E+00
 -1      3079-4.43310E+02 1.29877E+02-1.05282E+00 6.26188E+00-4.81002E+00-6.93963E+00
 -1      3080-1.18091E+03-2.11799E+02 1.99553E+00-5.03830E+02-3.07159E+00 5.84682E-01
 -1      3081 7.55319E+02 3.94619E+02 2.80544E-01 5.75527E+02-4.42537E+00 2.96219E+00
 -1      3082 6.69163E+02 3.76875E+02 1.68783E+00 5.32836E+02-3.17350E+00 3.13359E+00
 -1      3083 1.12664E+03 4.69957E+02 4.40382E-01 7.40274E+02 1.78948E+00-1.71768E+00
 -1      3084 1.02173E+03 4.44100E+02 2.54539E+00 6.88085E+02 5.69421E-01 3.72098E+00
 -1      3085 1.60937E+02 2.98863E+02-1.08578E+00 3.35985E+02-4.22586E+00-7.55703E+00
 -1      3086-1.60500E+02 2.31271E+02-1.81840E+00 1.83265E+02-3.37020E-01 2.91440E-01
 -1      3087-1.62945E+02 2.28093E+02-2.35920E+00 1.81590E+02 1.84863E+00-3.25005E-01
 -1      3088-4.54146E+02 1.50173E+02 1.98594E+00 2.05170E+01 9.40218E-01-3.48518E+00
 -1      3089-4.45589E+02 1.45047E+02-2.57204E-02 2.04471E+01-2.09411E+00-4.54586E-01
 -1      3090 1.42547E+02 3.16551E+02-4.55220E-01 3.42450E+02-8.17731E-01-2.39536E+00
 -1      3091 1.46907E+02 3.18663E+02-1.36318E+00 3.49234E+02-4.34665E+00-1.33351E+00
 -1      3092 2.69764E+02 3.43829E+02 2.99005E+00 4.08277E+02-1.26976E+00-3.39030E+00
 -1      3093-1.05094E+02 2.13164E+02-3.55555E-01 2.00409E+02-7.26048E-01 2.31229E+00
 -1      3094 2.73665E+02 3.22926E+02 8.86147E-01 3.95464E+02-6.23620E-01-6.50734E+00
 -1      3095-5.73264E+02 1.04507E+02-2.85493E+00-3.81123E+01-3.00172E+00-1.80896E+00
 -1      3096-1.78900E+02 1.95399E+02-1.53633E+00 1.54069E+02 1.62440E+00 7.59849E-01
 -1      3097-5.57244E+02 8.64311E+01-2.95701E+00-4.44240E+01-6.44532E+00-3.95092E+00
 -1      3098-1.39042E+03-2.72653E+02 3.58612E+00-6.20180E+02 8.91504E-01-5.61119E-01
 -1      3099-9.44749E+02-4.87657E+01-3.96153E+00-2.69619E+02-2.19292E+00 3.23542E+00
 -1      3100 1.36483E+03 5.04960E+02-4.17313E-01 8.48539E+02-2.25453E+00 6.59110E-01
 -1      3101 7.11239E+02 4.18385E+02 1.46275E+00 5.97651E+02 3.39100E+00 5.71817E-01
 -1      3102 5.55114E+03 2.50384E+02 6.62646E+00 1.38736E+03 1.57679E+00 6.04573E+00
 -1      3103-1.55691E+03-8.70118E+01-9.98396E+00-6.45233E+01-9.94272E+00-1.84317E+00
 -1      3104-4.98393E+03-3.13853E+02 8.22017E+00-1.08697E+03 1.09899E-01-4.21864E+00
 -1      3105-2.88219E+03-4.47619E+02 5.72637E+00-1.08460E+03 4.49592E+00-1.90913E+00
 -1      3106-9.39633E+02 2.42223E+01-1.70218E+00-1.03874E+02 8.52338E-01 3.17682E+00
 -1      3107 4.41141E+03 4.63210E+02 4.24560E+00 1.54145E+03-3.43143E-01 4.52042E+00
 -1      3108 9.26063E+02 1.69025E+02-7.03495E+00 6.12487E+02 7.68081E+00 2.98756E+00
 -1      3109 1.17217E+02 3.03029E+02 3.85418E+00 3.09115E+02-2.57913E+00-4.35045E+00
 -1      3110 9.20381E+02 4.16605E+02 7.58273E-01 6.37938E+02-2.49776E-02-1.32821E+00
 -1      3111 4.22775E+02 3.66783E+02-5.09047E-01 4.62950E+02-7.16530E-02-8.36188E-01
 -1      3112-3.91808E+02 1.42632E+02 3.49505E-01 3.97392E+01-1.84348E+00-6.61960E+00
 -1      3113-9.77023E+02-1.55362E+02 6.76587E-01-4.08925E+02-6.16689E-01 9.26829E-02
 -1      3114-6.68340E+02 4.40756E+01 1.02197E-01-1.32381E+02-2.09868E+00-5.40534E-01
 -1      3115-3.93162E+02 1.64399E+02 4.84534E-02 5.40334E+01-6.36067E-01-8.70193E-01
 -1      3116 8.46801E+01 3.15433E+02 1.31461E+00 3.10581E+02-5.72533E-01-1.60159E+00
 -1      3117 6.78319E+03 3.64579E+01 6.58999E+00 1.03072E+03 2.06592E+01 1.30715E+01
 -1      3118 4.08326E+03-5.68096E+01-1.27819E+01 8.06692E+02 1.65774E+01 9.89332E+00
 -1      3119 3.40667E+03-4.64270E+01-1.89151E+01 7.80971E+02 1.75425E+01 8.86281E+00
 -1      3120 4.07838E+03 5.07959E+02 7.11077E+00 1.53823E+03-6.50621E+00-2.93488E+00
 -1      3121-5.31388E+03-2.91457E+02 1.20286E+01-1.01293E+03 7.53202E+00 2.55598E+00
 -1      3122-1.65179E+03-9.02814E+01-1.00975E+01-3.46220E+01 4.13883E+00 3.14867E+00
 -1      3123-2.94007E+02-1.71827E+02-2.44792E+01 2.95629E+02 9.76287E+00-5.55004E-01
 -1      3124-1.92803E+03-1.77984E+02-1.64830E+01 8.74374E+01-8.64969E+00-2.26247E+00
 -1      3125-4.28190E+03-3.97977E+02 8.78710E+00-1.18465E+03 6.85673E+00 2.84477E+00
 -1      3126 8.48132E+02 2.13450E+02-6.68617E+00 6.08422E+02-1.04614E+00-4.59989E+00
 -1      3127-5.83072E+03-2.31412E+02 8.30700E+00-8.29287E+02-6.30948E+00-4.63089E+00
 -1      3128-5.95954E+03-2.44899E+02 1.58042E+01-9.23083E+02 1.19924E+01 2.78794E+00
 -1      3129 1.11837E+03 9.29946E+01-1.01222E+01 6.12238E+02-1.91938E+00-4.09282E+00
 -1      3130 5.19349E+03 3.13239E+02 8.88993E+00 1.45831E+03-7.05431E+00-3.60601E+00
 -1      3131 9.16559E+02 2.67070E+02 3.85036E-01 6.46705E+02-1.09459E+00-2.38483E+00
 -1      3132 9.26045E+02 2.61166E+02-4.68271E+00 6.50231E+02-4.67536E+00-1.55099E+00
 -1      3133 9.34695E+02 2.33783E+02-5.48616E+00 6.33432E+02-2.54171E+00 1.59990E+00
 -1      3134-4.49670E+03-4.25370E+02 6.75621E+00-1.31939E+03-1.01363E+01-3.41206E+00
 -1      3135-2.61519E+03-4.23985E+02 3.54356E+00-1.03150E+03-4.58317E-01-6.53863E+00
 -1      3136-1.15503E+03-2.14445E+01-5.47569E+00-1.74591E+02 5.09802E+00 1.55617E+00
 -1      3137-1.15410E+03-5.26780E+01-9.37795E+00-1.85124E+02 8.50060E+00 4.31612E+00
 -1      3138-2.88565E+02 9.17309E+01-7.21222E+00 1.61666E+02-6.43757E-01-1.79936E+00
 -1      3139 1.52135E+03 5.57802E+02 4.23979E+00 9.28825E+02 5.72855E+00 7.14957E+00
 -1      3140-1.53098E+03-3.02344E+02 4.08721E+00-6.81384E+02 3.24612E+00 5.69131E+00
 -1      3141-5.58508E+03-2.96508E+02 1.55846E+01-1.16801E+03-1.22892E+01-3.87804E+00
 -1      3142-2.01702E+03-1.86119E+02-2.94592E+00 1.45247E+02-1.44973E+01 9.96580E+00
 -1      3143 7.96340E+02 3.06073E+02 2.50640E-01 6.21227E+02 2.72233E+00 3.37363E+00
 -1      3144 7.81980E+02 2.72807E+02-6.06293E+00 6.05313E+02 1.69946E+00 5.52674E+00
 -1      3145-7.15617E+01 1.29611E+02-6.57653E+00 2.65385E+02 2.26153E+00-2.58948E+00
 -1      3146 5.98709E+03 3.42557E+02 1.36818E+01 1.55993E+03 1.21083E+01 1.00167E+01
 -1      3147-1.35464E+03-4.36840E+01-6.93095E+00-1.01622E+02 2.24903E+00 2.74628E+00
 -1      3148-3.21615E+03-4.72219E+02 7.40932E+00-1.18705E+03 2.56288E-01-5.14620E-01
 -1      3149-2.01465E+03-2.05345E+02-1.00584E+01-5.49441E+02 3.44178E+00-3.57327E+00
 -1      3150 3.28384E+03 6.24379E+02 2.78807E+00 1.48941E+03 4.05346E+00-9.52390E-01
 -1      3151 1.72854E+03 4.04350E+02-5.30752E+00 9.45845E+02-3.05071E+00-1.93327E+00
 -1      3152 8.72973E+03 6.26361E+02 1.79359E+03 6.31742E+02 4.43451E+01-1.31185E+01
 -1      3153 8.46705E+03 2.26357E+02 1.57789E+03 3.67354E+02-4.28838E+01-3.53111E+02
 -1      3154 8.09789E+03-4.98130E+01 8.76637E+02 6.16831E+02 4.52842E+01 7.24172E-01
 -1      3155 8.13061E+03-4.77859E+01 7.64797E+02 5.76808E+02 6.37074E+01-2.14270E+02
 -1      3156 5.00536E+03 8.59747E+02 1.10184E+03 5.62636E+02 3.22481E+01-1.90014E+02
 -1      3157-5.60493E+03-3.08963E+02 1.48852E+01-1.17543E+03 1.22285E+01 4.10069E+00
 -1      3158 4.71730E+03 5.46506E+02 6.35450E+00 1.68954E+03-9.90776E+00-9.83333E+00
 -1      3159-6.22320E+03-1.71767E+02 9.46052E+00-5.43723E+02 8.53741E+00 1.24963E+01
 -1      3160-6.54046E+03-1.73560E+02 9.82747E+00-4.64580E+02 8.04454E+00 2.20605E+01
 -1      3161 5.99881E+03 3.32813E+02 9.69213E+00 1.56545E+03-1.21236E+01-1.06665E+01
 -1      3162 1.25598E+02 3.11921E+02 3.10773E+00 3.07430E+02 1.85217E+00 5.69547E+00
 -1      3163 2.47952E+02 3.29490E+02-1.56984E+00 3.82426E+02-1.62580E-01 2.11018E-01
 -1      3164 1.93064E+02 3.13436E+02-3.58191E+00 3.58359E+02 3.31240E+00 3.69399E+00
 -1      3165 6.41755E+02 3.70471E+02 6.25538E+00 5.09107E+02 5.48097E+00 2.67637E+00
 -1      3166 2.38175E+03 6.28300E+02-4.07430E-01 1.25792E+03 4.23428E+00 6.43389E+00
 -1      3167 6.93141E+02 3.60808E+02-2.16384E+00 5.94703E+02 3.46427E+00 4.50064E+00
 -1      3168 1.89774E+03 5.33372E+02-5.87215E+00 1.06406E+03 2.94974E+00 5.64511E+00
 -1      3169 2.65468E+03 6.57756E+02 4.71480E+00 1.35124E+03 3.87300E+00 9.75840E-01
 -1      3170 9.05783E+02 3.62115E+02-4.87895E+00 6.80594E+02 5.56244E+00 4.49775E+00
 -1      3171 1.39205E+03 4.67723E+02-4.36044E+00 8.83010E+02 5.25600E+00 4.65514E+00
 -1      3172-4.22000E+03-2.07099E+02-9.27778E+00-1.13206E+02-5.64031E+00-1.57951E+01
 -1      3173-4.20970E+03-1.82070E+02-1.15307E+01-2.04834E+02-1.34269E+01-4.60052E+00
 -1      3174-3.46763E+03-4.88796E+02 4.10724E+00-1.25932E+03-6.31914E+00-5.04768E+00
 -1      3175 3.57057E+03 6.70053E+02 3.33768E+00 1.58731E+03-8.77160E+00-6.34067E+00
 -1      3176 2.30656E+02 3.32926E+02 1.71748E+00 3.99472E+02 2.01026E+00 4.92136E-01
 -1      3177-5.76758E+02 1.03188E+02 1.33202E+00-3.51252E+01-8.83542E-01-2.39428E+00
 -1      3178-5.57102E+02 1.18387E+02-2.30821E+00-1.41533E+01 2.15873E-01 1.34710E+00
 -1      3179 2.67091E+02 3.43214E+02-1.43184E+00 4.10198E+02-2.87341E+00-2.03468E+00
 -1      3180 1.48784E+03 5.31765E+02 2.93864E+00 9.11054E+02 2.06559E+00 5.71937E+00
 -1      3181 1.48672E+03 5.30339E+02 3.58501E+00 9.00717E+02-6.63672E-01-6.14582E+00
 -1      3182-1.52562E+03-2.90324E+02 5.64988E-01-6.66377E+02 4.13213E+00 4.61545E+00
 -1      3183-1.50209E+03-3.00999E+02 9.76121E-01-6.70676E+02-5.57720E+00-3.51604E+00
 -1      3184 4.72266E+03 5.56682E+02 1.04379E+01 1.68679E+03 1.00538E+01 9.11600E+00
 -1      3185 6.87805E+02 2.68632E+02-1.06799E+00 5.81166E+02-3.86127E+00-3.75039E-01
 -1      3186-1.15942E+03-2.55541E+01-1.71933E+00-1.69465E+02 2.65231E+00 1.90893E+00
 -1      3187-1.07203E+03-1.54233E+00-6.03991E+00-1.12169E+02-1.74580E+00-5.39285E-01
 -1      3188 7.97482E+02 3.00830E+02-5.24570E+00 6.25231E+02 3.85902E+00 1.86292E+00
 -1      3189 3.51889E+02 2.75456E+02 2.34012E+00 3.46960E+02 2.15164E+00 1.85348E+00
 -1      3190-8.15133E+01 2.65750E+02 2.73993E+00 2.09405E+02 1.06425E+00 5.20567E+00
 -1      3191 5.38002E+02 3.07977E+02-1.12951E-01 4.22859E+02 1.03052E+00-5.05096E+00
 -1      3192 4.05342E+01 2.82541E+02 2.20135E+00 2.73338E+02 4.03586E+00 6.19685E+00
 -1      3193 9.84752E+01 2.98499E+02-1.71367E+00 2.95656E+02 5.67531E-01 2.18585E+00
 -1      3194-4.50981E+03-4.36169E+02 7.23828E+00-1.32555E+03 9.11530E+00 5.15001E+00
 -1      3195-3.32911E+03-4.46534E+02 3.88530E+00-1.15966E+03-4.92778E+00-4.48466E+00
 -1      3196-3.35476E+03-4.73100E+02 5.59948E+00-1.20725E+03 7.39937E+00 4.32910E+00
 -1      3197-6.66460E+03-1.70459E+02 9.29226E+00-4.09077E+02-4.43613E+00 1.16499E+01
 -1      3198 3.38800E+03 5.89682E+02 4.75244E+00 1.48383E+03-2.92578E+00-6.08204E+00
 -1      3199 3.44742E+03 6.20763E+02 6.64304E+00 1.51507E+03 1.22685E+00 6.07230E+00
 -1      3200 6.98907E+03 1.40781E+02 9.93091E+00 1.26813E+03 1.28133E+01 1.34080E+01
 -1      3201 6.39228E+03 1.09528E+02 1.73443E+00 1.20471E+03 1.44712E+01 1.08158E+01
 -1      3202-2.33628E+02 1.74361E+02 2.33791E-01 9.58003E+01 4.04378E+00 4.07405E+00
 -1      3203-3.12284E+02 1.43264E+02 4.73162E-02 4.56954E+01 3.69069E+00 3.14013E+00
 -1      3204-7.26053E+03-1.18635E+02-2.26813E+02-1.57608E+02-3.82514E+01-2.13752E+01
 -1      3205-5.47773E+03-1.60416E+02-6.15342E+01-2.12542E+01 2.67031E+00-2.64969E+00
 -1      3206-6.84654E+03-1.35639E+02-1.20941E+01-3.05424E+02 4.21139E-01 1.71465E+01
 -1      3207-1.33419E+02 2.54000E+02 4.89036E-03 1.64681E+02 1.18175E+01-8.35739E+00
 -1      3208-1.40335E+02 1.98812E+02-4.12184E+00 1.96969E+02 1.46621E+01-9.76927E+00
 -1      3209-1.17863E+02 2.40661E+02 1.35865E-01 1.65878E+02 1.03728E+01-6.86103E+00
 -1      3210-9.67047E+01 2.01384E+02-2.82345E+00 1.92596E+02 9.97653E+00-5.71122E+00
 -1      3211-1.04029E+02 2.68251E+02-1.32980E+00 1.98923E+02 5.44795E+00-5.89695E+00
 -1      3212 2.07597E+03-1.43034E+02-3.38317E+01 5.78533E+02 1.12452E+01 8.70262E+00
 -1      3213 2.64099E+03-8.55234E+01-1.79199E+01 6.59974E+02 9.95715E+00 1.07611E+00
 -1      3214 1.95052E+03-6.46286E+01-2.38993E+01 6.35098E+02 5.96447E+00 4.20135E+00
 -1      3215-5.61940E+03-1.59287E+02-3.09237E+02 5.55124E+01 4.33879E+00-7.74113E-01
 -1      3216-7.51814E+03-1.30773E+02-5.01038E+02-5.35415E+01 5.97922E+01 6.69153E+01
 -1      3217-7.33397E+03-1.16600E+02-2.35880E+02-1.67487E+02 3.83411E+01 3.30114E+01
 -1      3218-1.33179E+02 2.62573E+02 2.57970E-01 1.48127E+02 1.57223E+01-6.92374E+00
 -1      3219-1.40433E+02 2.30511E+02 4.42128E+00 1.30688E+02 1.02040E+01-6.21213E+00
 -1      3220-1.74691E+02 2.58024E+02 5.28073E+00 1.74269E+02 6.77122E+00-2.24807E+00
 -1      3221-1.94688E+02 2.20796E+02 1.62358E+00 1.51086E+02 9.51612E+00 5.52605E-01
 -1      3222-7.43156E+03-1.09627E+02-5.06687E+02-6.28732E+01-5.92673E+01-4.48971E+01
 -1      3223-2.31217E+02 1.07345E+02 3.84709E+00 2.99674E+01 4.12187E+00-2.52990E+00
 -1      3224-2.88211E+02 9.39354E+01 4.71184E+00-5.27291E+00 2.90257E+00-4.79114E-01
 -1      3225-2.03203E+02 7.12739E+01 7.89756E+00 3.32039E+00 3.60531E-01 8.87082E-01
 -1      3226-2.92947E+02 4.27362E+01 3.89431E-02-4.18764E+01-1.66576E-01-5.54808E+00
 -1      3227-7.27957E+01 2.51767E+02-4.95757E+00 2.14163E+02-5.00269E+00-4.88275E+00
 -1      3228 3.05523E+02 2.51009E+02-9.44487E-01 2.98524E+02-1.01517E+00-1.22987E+00
 -1      3229 1.99060E+01 2.74187E+02 3.02447E+00 2.37273E+02 3.38459E-01-2.06116E+00
 -1      3230-1.84459E+02 1.90591E+02-3.16900E+00 2.04836E+02-2.49109E+00-4.52389E-01
 -1      3231-7.75835E+02 6.08820E+01 1.14039E+00-8.07121E+01-7.23439E-01-1.85660E+00
 -1      3232-3.37296E+01-6.08564E+01-1.84907E+01 3.17045E+02 5.94048E-01-1.42575E+00
 -1      3233 2.43738E+03 6.03205E+01-2.66008E+01 8.28877E+02-3.07838E+00 1.08444E+00
 -1      3234 1.92148E+03-2.38969E+02 4.43929E+01 3.80694E+02 9.78975E+01-6.57193E+00
 -1      3235-4.60153E+02-2.12216E+02-1.70345E+01 3.37841E+02 9.59356E+01-3.64714E+00
 -1      3236 1.55880E+03-2.14085E+02-2.22930E+01 4.06214E+02 6.00357E+01 2.33676E+01
 -1      3237-5.01652E+02-2.14703E+02-3.06463E+01 3.26303E+02 1.08841E+02 1.02848E+01
 -1      3238-2.35594E+03-1.60444E+02-6.75184E+01 1.93168E+02 9.83485E+01 1.33571E+01
 -1      3239-2.45952E+03-2.89595E+02-1.25652E+02 1.69240E+02 1.26429E+02 5.53254E+01
 -1      3240 6.36167E+02 3.43399E+02 5.99353E+00 4.75103E+02-1.48637E+00 5.01463E+00
 -1      3241 2.30559E+03 6.32009E+02 6.34785E+00 1.23021E+03 2.07805E-01 4.70010E+00
 -1      3242 4.73149E+02 3.10479E+02-1.71389E+00 5.01334E+02 1.61635E+00 5.93483E+00
 -1      3243 2.18379E+03 6.17533E+02 1.19733E+00 1.18944E+03 3.14174E+00-6.34257E+00
 -1      3244 2.98115E+03 6.53422E+02 5.86956E+00 1.43776E+03-2.63638E+00-4.26060E+00
 -1      3245 7.13211E+02 3.24598E+02-8.71556E+00 5.93860E+02 6.05662E+00 5.14190E+00
 -1      3246 2.84064E+03 6.49156E+02-1.04371E+00 1.40742E+03 4.84318E+00 1.88958E+00
 -1      3247 1.34669E+02 3.19569E+02 7.07009E-01 3.35275E+02 1.77181E+00 7.71983E-01
 -1      3248 1.28588E+02 3.32217E+02 4.64219E+00 3.35540E+02 2.12275E-01 3.33258E+00
 -1      3249 1.42400E+02 3.11815E+02-7.50628E-01 3.22126E+02 2.98724E+00 6.61152E+00
 -1      3250 9.53968E+02 4.16342E+02-1.85882E-01 6.51851E+02 3.26996E+00 1.48219E+00
 -1      3251 1.06004E+03 4.45103E+02-1.73107E-01 7.04881E+02-4.06839E+00-2.92129E+00
 -1      3252 7.24600E+02 3.42998E+02 1.83397E-01 6.10247E+02 3.97569E+00 2.49279E+00
 -1      3253 7.13140E+02 3.54950E+02 1.75948E+00 6.08648E+02 2.80571E+00 3.59215E+00
 -1      3254 4.68995E+02 3.32924E+02-5.49872E+00 5.14064E+02 3.63319E+00 2.34281E+00
 -1      3255 4.71675E+02 3.37158E+02-2.34103E+00 5.08737E+02 1.52790E+00 1.83188E+00
 -1      3256-5.60883E+01 2.75970E+02 1.28776E+00 2.33434E+02-1.80346E+00-4.48212E-01
 -1      3257 5.74628E+02 3.21518E+02-9.37948E-01 4.43953E+02-5.05133E+00-6.16970E+00
 -1      3258-2.14648E+03-4.01874E+02 4.72781E+00-9.18930E+02-1.16007E+00 3.11180E-01
 -1      3259-1.39984E+03-1.40445E+02-8.58586E+00-4.33333E+02 2.86973E+00-2.65507E+00
 -1      3260-5.11194E+02 1.73436E+01 1.37333E+00-1.23244E+02-6.18302E+00 1.63018E+00
 -1      3261-4.33487E+02 4.25866E+01 1.58951E-01-8.03618E+01-3.82718E+00-1.97090E+00
 -1      3262-5.21211E+02-2.72615E+01 1.20271E+00-1.75395E+02 2.70708E+00-1.33577E+00
 -1      3263-2.77750E+02 1.77748E+02 5.71798E+00 8.32959E+01-6.30591E+00-7.26255E+00
 -1      3264-6.22248E+02-5.94837E+01 2.44135E+00-2.28478E+02-1.52061E-01 3.15124E+00
 -1      3265 1.90802E+03-1.34420E+02 8.05507E+01 3.30534E+02 1.13211E+02-5.89598E+00
 -1      3266 1.10969E+02 3.09939E+02 8.05185E-02 3.34600E+02 1.07641E+00 1.08811E+00
 -1      3267 1.05092E+02 2.87570E+02-6.17703E+00 3.15573E+02 1.30078E+00 4.16689E+00
 -1      3268 4.26527E+02 3.68036E+02 5.82559E-01 4.64995E+02 1.40187E+00 1.26699E+00
 -1      3269 1.08078E+03 4.58653E+02 4.86524E+00 7.17436E+02 8.25303E-01 2.03363E+00
 -1      3270 5.24336E+03 5.32252E-03-2.18525E+00 9.18241E+02 1.74179E+01 9.96647E+00
 -1      3271 3.88405E+02 2.89135E+02 1.38410E+00 3.69777E+02 6.61245E+00 5.20709E+00
 -1      3272 5.78905E+02 3.20039E+02 1.68655E+00 4.41513E+02 4.45411E+00 7.79780E+00
 -1      3273 7.69083E+03 1.68475E+01 2.03611E+01 9.36727E+02-1.75444E+01-2.20345E+01
 -1      3274 1.65768E+03-1.37883E+02-1.09395E+01 4.95853E+02 1.77613E+01 5.39193E+00
 -1      3275 1.63999E+03-1.08421E+02-9.16803E+00 5.18144E+02 1.02648E+01 5.55426E+00
 -1      3276 1.56967E+03-1.67047E+02-4.13969E+01 5.12944E+02 1.38361E+01 6.71649E+00
 -1      3277 1.47731E+03-3.72098E+01-1.29407E+01 5.82072E+02 8.75194E+00 3.64233E+00
 -1      3278 7.06301E+03-2.84453E+01 1.44165E+01 8.81341E+02 1.05003E+01-1.78899E+00
 -1      3279 6.88215E+03 2.20640E+00 6.41149E+00 9.77034E+02 8.10938E+00 7.62543E+00
 -1      3280 6.28821E+03 1.36701E+02 1.43221E+01 1.23788E+03 1.09064E-01 5.28337E+00
 -1      3281-7.35068E+03-1.26949E+02-2.27769E+02-1.10012E+02-5.39213E+01-5.13008E+01
 -1      3282-4.79386E+03-1.31232E+02-9.47773E+01 2.78557E+01-1.05211E+02 2.99789E+01
 -1      3283-7.41631E+03-8.24685E+01-4.57039E+01-3.11870E+02-2.17796E+01 3.59885E+01
 -1      3284-6.88391E+03-1.44097E+02-4.97606E+01-2.60643E+02-1.66967E+01 1.22508E+01
 -1      3285-4.44156E+03-2.07461E+02-2.06620E+01-7.49353E+01-2.06709E+01 3.74190E+01
 -1      3286-2.09331E+02 5.95968E+01 5.69735E+00-3.92978E+00-7.84193E-01-2.17962E+00
 -1      3287-2.25523E+02 2.13975E+02-1.82068E+00 1.25016E+02-5.50762E-01-1.00506E+01
 -1      3288-2.79951E+02 5.10069E+01 2.34008E+00-2.86999E+01-5.59092E-02-5.43708E-01
 -1      3289-2.48527E+02 1.78534E+02 1.02468E+00 9.53509E+01-4.75491E+00-1.10466E+00
 -1      3290-2.28660E+02 6.00628E+01 6.77000E+00-1.15668E+01 4.41664E+00 6.24834E+00
 -1      3291-2.73392E+02 4.32195E+01 3.16366E+00-3.82941E+01 3.04302E+00 6.40960E+00
 -1      3292-3.31966E+02 2.09400E+01 2.45718E+00-7.17936E+01 4.85833E+00 5.31526E+00
 -1      3293 1.83800E+02 1.93668E+02-4.21037E+00 2.19014E+02 3.85487E+00 6.83952E+00
 -1      3294 2.12137E+02 2.36786E+02 4.30138E-01 2.63574E+02 2.50777E+00 6.75167E+00
 -1      3295 8.52859E+03 3.84684E+02 1.68129E+03 4.47533E+02-1.68512E+01 3.39220E+02
 -1      3296 5.01241E+03 8.94034E+02 1.05271E+03 5.42169E+02-7.07267E+01 1.76141E+02
 -1      3297 8.17848E+03-9.51560E+01 8.01176E+02 6.34337E+02-5.94967E+01 1.96902E+02
 -1      3298 5.05863E+03 8.02054E+02 1.05521E+03 5.92635E+02-1.36611E+01-7.78947E+00
 -1      3299-8.98603E+01 2.02086E+02-7.38006E+00 1.88359E+02-4.34834E-01-1.29064E+00
 -1      3300-8.87000E+01 2.12562E+02-7.51979E+00 1.86324E+02-4.15298E+00 8.85091E+00
 -1      3301-2.32509E+03-4.34410E+02 4.48935E+00-9.93786E+02-5.69121E+00-5.65897E+00
 -1      3302-3.40811E+03-5.03513E+02-6.20990E+02 1.96258E+02-6.57256E+01-1.18723E+02
 -1      3303-4.75167E+03-1.47621E+02-4.19677E+02 3.72657E+02-4.40936E+00-1.08647E+01
 -1      3304 7.01381E+03-1.12768E+02 6.09626E+01 6.56629E+02-2.08187E+01-1.42181E+01
 -1      3305 1.08070E+03-1.90485E+02-2.11346E+01 5.15769E+02-3.13488E+01-1.83995E+01
 -1      3306 3.49755E+03-2.26806E+02 4.83771E+01 5.71948E+02-8.44618E+01 3.48016E+00
 -1      3307-9.92299E+01 2.30557E+02-1.01647E+00 1.77619E+02 3.52585E+00-6.97831E+00
 -1      3308 9.74845E+02 4.25713E+02 2.40109E+00 6.60495E+02-5.98847E+00-8.45222E+00
 -1      3309 1.07094E+03 4.49897E+02 1.12948E+00 7.08771E+02-2.92206E+00-6.11918E+00
 -1      3310-1.02172E+03-1.70140E+02 3.84564E-02-4.33369E+02-4.95786E+00-9.46204E+00
 -1      3311-1.11938E+03-1.98786E+02 1.03735E+00-4.78107E+02-5.06631E+00-5.73568E+00
 -1      3312-7.32832E+02 3.07312E+01 2.45964E+00-1.67457E+02-1.12780E+00-3.12119E+00
 -1      3313-8.13279E+02 3.29423E+00 6.86764E-02-2.06851E+02-3.52418E+00-2.66105E+00
 -1      3314 4.86260E+02 3.95529E+02-1.51257E+00 5.03116E+02-3.45083E+00-2.04197E+00
 -1      3315 5.68740E+02 4.13305E+02 7.69599E-01 5.42810E+02-2.28968E+00-4.01981E+00
 -1      3316 1.33812E+03-2.20718E+02-2.53035E+01 3.94318E+02-6.43710E+01-2.07042E+01
 -1      3317-1.31965E+02 2.62918E+02 1.33032E+00 1.47992E+02-1.44906E+01 6.26972E+00
 -1      3318-1.33568E+02 2.52568E+02 5.67327E-01 1.64423E+02-1.16368E+01 8.15125E+00
 -1      3319-1.73190E+02 2.57975E+02 5.00816E+00 1.74204E+02-6.41927E+00 2.88142E+00
 -1      3320-1.38906E+02 2.31188E+02 5.01827E+00 1.28674E+02-8.61242E+00 4.36997E+00
 -1      3321-1.94190E+02 2.20898E+02 7.29417E-01 1.50906E+02-8.68419E+00-9.70483E-01
 -1      3322 7.93534E+03-4.96885E+01 2.88711E+02 5.45003E+02 7.23755E+01-9.54415E+01
 -1      3323 4.65226E+03-2.17974E+02 7.70073E+01 4.38545E+02 1.14473E+02 1.84744E+01
 -1      3324 8.19684E+03-1.26822E+02 9.31975E+01 3.90181E+02 4.14434E+01-7.92143E+00
 -1      3325 7.32072E+03-9.50061E+01 8.91390E+01 5.85825E+02 4.10423E+01-1.33695E+01
 -1      3326 4.19717E+03-1.89168E+02-3.51922E+00 4.74111E+02 5.52812E+01 4.30520E+01
 -1      3327 1.96801E+01 2.98852E+02-2.21815E+00 2.74379E+02 2.07827E-01 3.20577E+00
 -1      3328-1.49874E+02 2.49954E+02 2.38709E+00 1.81049E+02-1.96374E+00-3.11651E-01
 -1      3329-3.05478E+02 1.93206E+02-2.29377E+00 8.95807E+01-2.96896E+00-1.10158E+00
 -1      3330-1.18088E+02 2.28748E+02-1.68519E+00 1.74282E+02 9.84100E-01-6.79772E-01
 -1      3331 2.83697E+01 3.03075E+02 1.24954E+00 2.84756E+02 6.35612E-01 2.27874E+00
 -1      3332-3.05728E+02 1.95478E+02 2.11227E+00 8.71180E+01 1.06481E+00-2.90227E+00
 -1      3333-1.99594E+02 2.45441E+02 3.32274E+00 1.57572E+02-3.98775E+00 6.47705E-01
 -1      3334-1.35237E+02 2.51215E+02 1.56030E+00 1.77707E+02-5.08607E+00 3.93801E+00
 -1      3335 2.01595E+03 5.97120E+02 4.79674E+00 1.12720E+03 2.37635E+00-8.38842E-01
 -1      3336 3.72050E+02 3.11645E+02-1.59408E+00 4.49485E+02 3.44843E+00 5.62125E+00
 -1      3337 1.03561E+03 4.37847E+02-5.56029E+00 7.49811E+02 2.63602E+00 4.72387E-01
 -1      3338 5.64519E+02 2.64458E+02-1.16756E+01 5.26539E+02 4.15690E+00 7.62631E+00
 -1      3339 2.89089E+03 6.21243E+02 1.03061E-01 1.38832E+03 2.15233E-01-4.00710E-01
 -1      3340 1.50760E+03 4.45773E+02-2.91330E+00 9.13496E+02 5.27166E+00-1.70613E-01
 -1      3341 3.51405E+02 3.30188E+02-2.64093E+00 4.55563E+02 4.24865E-01 1.35709E+00
 -1      3342 5.90502E+02 2.93094E+02-4.51062E-01 5.49578E+02 3.99760E+00 1.95314E+00
 -1      3343-2.27871E+03-4.09563E+02 2.47035E+00-9.42597E+02-2.10142E+00-1.98317E+00
 -1      3344-2.27643E+03-4.25632E+02 2.19233E+00-9.61634E+02 4.70099E+00 7.08203E-01
 -1      3345-7.60315E+03-2.65091E+02-1.52660E+03 2.48990E+01-2.98077E+01 3.19792E+02
 -1      3346-7.86291E+03-6.92215E+02-1.78109E+03 2.15821E+02 3.26578E+01 2.62992E+01
 -1      3347-7.62050E+03-1.23513E+02-7.38595E+02 5.70716E+01 7.70382E+01 1.99907E+02
 -1      3348-7.60452E+03-1.11745E+02-8.82858E+02 9.89334E+01 4.84030E+01 3.21010E+00
 -1      3349-5.19172E+03-1.09895E+03-1.22664E+03 3.50435E+02 4.28273E+01 2.12079E+02
 -1      3350 1.28366E+00 2.65129E+02 1.15974E+00 2.21148E+02 2.36262E+00 6.13259E+00
 -1      3351 2.36451E+02 2.12805E+02 9.96833E-01 2.48016E+02 3.25873E+00 6.02490E+00
 -1      3352 1.57110E+01 2.85756E+02 2.22734E+00 2.51309E+02-2.37244E-01 4.43935E+00
 -1      3353 1.98830E+03 1.39381E+01 1.21644E+02-1.86459E+02 5.28307E+01-1.30754E+02
 -1      3354-4.58545E+02 5.36870E+01 1.47146E+02-2.72675E+02 8.45753E+00-3.79901E+01
 -1      3355-3.86314E+03-4.11194E+02-2.26279E+02 8.83534E+01 1.68022E+02 1.08910E+02
 -1      3356-1.47829E+03-1.14208E+02-1.52349E+01 8.18940E+01 1.39474E+02 4.11183E+01
 -1      3357-1.10556E+03-1.90457E+02-8.09657E+01 1.20751E+02 1.34061E+02 6.86796E+01
 -1      3358-6.71053E+03-1.38213E+02-1.97152E+01-2.74633E+02 5.97398E+00-1.83789E+01
 -1      3359-2.24045E+03-2.69960E+02-4.28928E+01 2.58663E+02 2.82338E+01-2.38818E+01
 -1      3360-4.11644E+03-2.03188E+02-1.06105E+02 1.28141E+02 6.49797E+01-5.70971E-01
 -1      3361 4.67350E+01 8.75502E+01-2.67000E+01 1.59961E+02 1.33009E+00 1.53174E+00
 -1      3362 5.38948E+01 8.42641E+01-2.35851E+01 1.61974E+02-3.00360E-01-5.92507E+00
 -1      3363 9.48341E+01 1.76603E+02-6.68271E+00 1.71915E+02 6.05131E-01 6.78746E-01
 -1      3364 1.04210E+02 1.72145E+02-6.54034E+00 1.72998E+02-3.42055E+00-6.67021E+00
 -1      3365-8.05471E+01 1.68965E+02-2.13118E+01 1.95710E+02 2.39867E+00-4.03736E+00
 -1      3366-1.84827E+03-2.04917E+02 1.33287E+00 1.39334E+02 4.58819E+01-1.66508E+01
 -1      3367-1.58434E+02 2.24331E+02-2.48931E-01 1.54088E+02-6.09648E-02 2.19485E-01
 -1      3368-1.69430E+03-1.39009E+02-6.58159E+00 5.74145E+01 5.81518E+00-1.18236E+00
 -1      3369 1.33559E+03-6.30382E+01-1.00346E+01 5.47959E+02-8.42188E+00-7.58202E-01
 -1      3370-1.59719E+02-1.26051E+02-3.09885E+01 3.02041E+02 1.82697E-03-6.46487E-01
 -1      3371-6.81989E+01-1.54206E+02-2.01053E+01 2.69571E+02-7.99334E-02-1.87047E+00
 -1      3372 3.02577E+03-7.34999E+01-2.57852E+01 7.33720E+02-1.51079E+01-3.59812E+00
 -1      3373 1.42280E+03-1.00334E+02-1.39565E+01 5.09926E+02-3.12918E+00-2.70946E+00
 -1      3374-1.07677E+02 2.74465E+02-3.51469E+00 2.09789E+02-1.33888E+00-1.89409E+00
 -1      3375-7.76680E+02-9.65988E+01-3.58383E-01-3.06313E+02 3.79220E+00 2.72944E+00
 -1      3376-4.56833E+02 1.10399E+02 3.76853E+00-2.63501E+01-2.21398E-01-7.39705E-01
 -1      3377-7.78789E+02-1.01003E+02-2.77970E+00-3.08834E+02-1.99310E+00-1.83749E+00
 -1      3378-8.64832E+02-1.27887E+02 2.43827E+00-3.52248E+02 5.50166E-01-9.34747E-01
 -1      3379-5.41536E+02 8.49495E+01-2.72821E+00-6.72822E+01-1.71940E+00-3.65659E+00
 -1      3380-5.28143E+02 9.04247E+01 6.29818E-02-6.15517E+01 4.62514E-01-3.96959E+00
 -1      3381-3.21119E+02 1.89721E+02 8.72730E-01 8.72647E+01 5.76102E-02 1.19722E+00
 -1      3382 2.87556E+01 2.99794E+02 2.41508E+00 2.77596E+02-1.58866E+00-5.14105E-01
 -1      3383-1.42511E+02 2.26958E+02-4.05920E+00 1.72082E+02 1.25168E+00-2.73831E-01
 -1      3384-8.96251E+01 2.30066E+02-2.14401E-01 1.96922E+02-2.07719E-01-1.03912E+00
 -1      3385 2.93480E+02 3.44309E+02 4.12605E+00 3.92095E+02-2.34949E+00-2.90606E+00
 -1      3386 7.86315E+01 3.08602E+02 9.76667E-01 3.10370E+02 8.46181E-01-3.04154E+00
 -1      3387-3.20890E+03-2.10652E+02-2.57200E+01-1.71781E+02 1.27141E+01 3.95730E+00
 -1      3388-1.77403E+03-1.55157E+02-1.26334E+01 9.01452E+01 4.95939E+00 3.51626E-01
 -1      3389-1.40260E+02-1.84888E+02-3.76847E+01 2.97547E+02-4.72827E+00-1.68485E+00
 -1      3390-7.49925E+02-1.01770E+02-1.84773E+01 1.71453E+02 1.39693E+00 1.62478E+00
 -1      3391-1.19612E+03-9.02288E+01-4.33657E+00-3.51432E+02-2.06752E-01 1.15211E+00
 -1      3392-7.93405E+02 2.88730E+00 1.70487E+00-2.01763E+02 1.77640E+00-2.83043E+00
 -1      3393-1.10170E+01 2.46623E+02 5.37542E-02 2.43563E+02-1.60569E+00 9.58615E-01
 -1      3394-2.70824E+02 1.72245E+02-1.48729E+00 1.09102E+02 5.36574E-01-9.88252E-01
 -1      3395 5.58824E+02 3.81532E+02-2.38883E+00 5.27719E+02-2.44377E+00-4.46073E-01
 -1      3396-3.51765E+02 1.31032E+02-4.15605E+00 9.65727E+01-1.66543E+00 1.28467E+00
 -1      3397-4.43321E+02 5.50346E+01 1.62445E+02-2.82233E+02-1.84374E+00 3.91222E+01
 -1      3398 2.00327E+03 1.42243E+01 1.19772E+02-1.96517E+02-5.05686E+01 1.37944E+02
 -1      3399-1.02201E+03-1.91053E+02-7.71708E+01 1.34738E+02-1.35932E+02-7.31990E+01
 -1      3400-1.39004E+03-8.95292E+01 1.78916E+01 8.82305E+01-1.31050E+02-3.37817E+01
 -1      3401-3.79462E+03-4.01927E+02-2.22889E+02 1.04707E+02-1.73588E+02-1.12632E+02
 -1      3402-8.36097E+02-1.20266E+02 7.91659E+00-3.35893E+02 1.14805E+00 2.78015E+00
 -1      3403-5.01624E+02 1.00615E+02 8.98457E-02-4.78365E+01 2.41883E+00 1.54317E+00
 -1      3404-5.82445E+02 7.34797E+01-1.07423E+00-9.02281E+01-1.29968E+00-1.50570E-01
 -1      3405-3.65539E+02 1.77954E+02 4.24912E-01 6.24011E+01 3.97502E-01-1.90742E-01
 -1      3406-1.33709E+02 2.25546E+02-8.33416E+00 1.77392E+02-1.77250E+00 2.67438E+00
 -1      3407-4.66252E+02 7.55058E+01-7.07468E+00 9.63024E+01-1.67064E-01 1.08094E+00
 -1      3408-5.24964E+02-2.28621E+02-2.74150E+01 2.89465E+02-2.33818E+01 4.81827E+00
 -1      3409 7.04984E+00 2.86707E+02 1.04094E+00 2.57008E+02-1.53319E-01-9.29699E-01
 -1      3410-3.15638E+03-1.90759E+02-1.64558E+01-3.56622E+02-2.45713E+00-1.31916E+00
 -1      3411 5.30952E+02 4.07920E+02 2.63750E+00 5.24875E+02 1.10844E+00 6.13433E+00
 -1      3412 5.29285E+02 4.01315E+02 1.46910E+00 5.21326E+02 4.66140E+00 3.27240E+00
 -1      3413 1.03792E+03 4.47246E+02 1.49991E+00 6.95067E+02 1.67633E+00 8.75275E+00
 -1      3414 1.02338E+03 4.31309E+02 1.18271E+00 6.82052E+02 5.13977E+00 7.18793E+00
 -1      3415 1.44839E+03-2.14414E+02-3.48695E+01 4.53993E+02 2.24138E+01 1.76175E+01
 -1      3416 7.01576E+03-5.55524E+01 2.26147E+01 7.90088E+02 2.14664E+01 1.27225E+01
 -1      3417 3.42438E+03-1.53351E+02-2.76895E+01 6.39962E+02 3.23809E+01 1.26205E+01
 -1      3418 1.47066E+03 3.85785E+02-9.01752E+00 8.70391E+02 3.86535E+00 1.03717E+00
 -1      3419-6.66287E+01 1.35628E+02 2.59830E+01 2.31457E+01 5.22343E+00 3.47612E+00
 -1      3420-6.66346E+01 1.38324E+02 2.88038E+01 2.79671E+01-7.19183E-01-1.62500E+00
 -1      3421-1.47999E+02 7.79821E+01 9.00115E+00 3.13451E+01 4.57771E+00 5.24955E+00
 -1      3422-1.46079E+02 8.49251E+01 1.04874E+01 3.75912E+01 3.44389E-01-2.92841E-01
 -1      3423-1.21274E+02 2.39920E+02 2.21961E+01 1.01085E+02 4.21203E+00-2.33225E-01
 -1      3424-5.98356E+03-2.00697E+02 2.34600E+01-6.77889E+02 7.14989E+00-4.48117E-01
 -1      3425-5.88271E+03-2.07188E+02 9.12661E+00-7.27205E+02 5.08960E+00 4.34695E+00
 -1      3426-6.12410E+03-2.06418E+02 1.41617E+01-6.92485E+02-3.92929E+00 3.92029E-01
 -1      3427-3.33700E+03-2.13130E+02-3.27851E+01-1.88143E+02 1.86569E+00-1.42985E-01
 -1      3428-3.42277E+03-2.03428E+02-2.66321E+01-1.49872E+02 7.76723E-01-5.61611E-01
 -1      3429-1.76037E+03-1.62289E+02-4.18067E+00-4.78003E+02-1.82224E+00 1.34458E+00
 -1      3430 1.09201E+02 1.70475E+02-4.96496E+00 3.25081E+02 1.62763E+00-1.27419E+00
 -1      3431 1.46623E+02 1.35986E+02-6.10928E+00 3.36996E+02-6.76972E-01 4.68880E-01
 -1      3432-2.02143E+03-1.83189E+02-7.16304E+00-5.04099E+02 4.08560E-01-6.51744E-01
 -1      3433 3.13505E+03-1.70091E+02-2.49121E+00 5.79553E+02 2.51848E+00 1.48948E+00
 -1      3434 1.53589E+03-1.88199E+02-1.85295E+01 4.37585E+02 2.88040E+01 1.16287E+01
 -1      3435 4.23222E+02 3.19458E+02 6.74182E-02 4.88207E+02-4.57713E+00 5.52024E-01
 -1      3436-1.38195E+02 1.73097E+02-3.46909E+00 2.08069E+02-1.16814E+00 9.43848E-02
 -1      3437-7.84518E+02 5.14183E+01-3.86895E+00-6.57446E+01 2.29091E+00 5.05049E-01
 -1      3438 4.87292E+02 3.12793E+02-4.00795E+00 5.16379E+02-2.48541E-01-4.00310E-01
 -1      3439-8.78471E+01 1.68928E+02-1.48632E+00 2.38608E+02-2.54137E+00-1.14034E+00
 -1      3440 1.11685E+03 4.13539E+02-8.03339E+00 7.75862E+02-3.87628E+00-1.53866E+00
 -1      3441-3.20625E+03-1.97983E+02-1.77664E+01-2.44706E+02-7.03928E+00 3.83409E-02
 -1      3442-5.98011E+03-1.98782E+02 1.30339E+01-7.62957E+02-1.04516E+01-4.48235E+00
 -1      3443-3.45178E+03-2.19504E+02-2.55707E+01-2.17383E+02-1.08114E+01-1.66963E+00
 -1      3444-1.11735E+02 2.38515E+02-4.14268E-01 1.65156E+02-1.00754E+01 4.41793E+00
 -1      3445-1.12682E+02 2.58883E+02-5.52253E+00 2.03950E+02-4.80914E+00 4.89839E+00
 -1      3446-2.78611E+03-6.88494E+02-3.07547E+02-3.05765E+02 1.01510E+01 2.24533E+02
 -1      3447-3.78035E+03-6.87054E+02-6.72172E+02 9.72795E+01 8.21198E+01 3.19862E+02
 -1      3448 1.60061E+03 5.44085E+02 2.31385E+00 9.58654E+02-1.08586E+00 2.63708E+00
 -1      3449 6.10025E+02 3.93011E+02-5.80770E+00 5.60068E+02-4.41851E+00 2.10165E+00
 -1      3450 1.54056E+03 5.39817E+02 4.23602E+00 9.33419E+02-1.54171E+00 2.22072E-01
 -1      3451 1.78170E+03 5.75481E+02 1.61557E+00 1.03301E+03 3.38834E+00 3.36589E+00
 -1      3452 7.58759E+02 4.16185E+02-3.28824E+00 6.28887E+02 2.48184E-01-6.14916E-01
 -1      3453 8.16308E+02 4.34697E+02-3.71310E+00 6.58770E+02 4.08497E+00 2.82145E+00
 -1      3454-5.17571E+02 1.24774E+02 1.12138E+00 1.18855E+01 8.57489E-01 4.87676E-01
 -1      3455-1.09180E+02 2.13835E+02-6.28743E+00 2.01604E+02-1.43507E-01 1.46636E+00
 -1      3456 2.41272E+02 3.28479E+02 3.48417E-02 4.01953E+02 3.52582E+00-1.81255E+00
 -1      3457 3.78876E+02 3.52220E+02 4.75463E-01 4.70616E+02 7.09261E-01 1.39473E+00
 -1      3458 2.36321E+01 2.33921E+02-3.05151E-01 2.66290E+02-2.79276E+00 1.34673E+00
 -1      3459-4.88104E+02-1.43555E+01 4.41802E+00-1.56667E+02 6.99081E-01-6.34382E-01
 -1      3460-3.71048E+02 1.21818E+02-2.67145E+00 1.55195E+00 1.60665E+00-3.99239E+00
 -1      3461 9.08481E+02 4.04764E+02 1.53202E-01 6.85837E+02 3.74040E+00-1.06855E+00
 -1      3462 8.92033E+00 2.21979E+02-2.60177E+00 3.00332E+02-6.43107E-01-2.46970E+00
 -1      3463 9.76021E+02 3.94389E+02 6.50496E-02 7.14057E+02 3.11274E+00-8.58614E-01
 -1      3464-3.94489E+02 3.85880E+01-1.52491E+01 1.74805E+02 1.68325E+00-3.69512E+00
 -1      3465-1.23008E+03-3.06566E+01-3.07137E+00-1.12655E+02-6.66699E+00 1.40017E+00
 -1      3466 6.71858E+02 2.01156E+02-4.28337E+00 5.56153E+02 1.02985E-01 9.18190E-01
 -1      3467-4.81903E+02 2.68825E+01-6.55410E+00 1.11866E+02 1.54093E+00-4.08340E+00
 -1      3468-1.30816E+03-4.50771E+01-2.74314E+00-1.70830E+02-2.73833E+00-2.48502E-01
 -1      3469-2.32760E+03-2.09329E+02-9.76532E+00-5.62017E+02-1.00123E+01-5.20922E+00
 -1      3470 3.91766E+03 5.29600E+02 3.91769E+00 1.52856E+03-8.66931E+00-3.46071E-01
 -1      3471 1.74947E+03 2.91748E+02-8.07385E+00 8.88187E+02-6.21661E+00 9.10604E-02
 -1      3472 3.72315E+03 5.11541E+02 1.00607E+00 1.47790E+03 4.01565E+00 2.08385E+00
 -1      3473 3.97369E+03 5.71171E+02 8.45030E+00 1.57945E+03-4.27807E+00-3.10680E+00
 -1      3474 1.83905E+03 3.27640E+02-1.04543E+01 9.38330E+02 2.14183E-01 6.81213E-01
 -1      3475 2.00710E+03 3.40478E+02-7.42019E+00 9.94251E+02-6.19415E+00-2.45032E+00
 -1      3476-2.12898E+01 7.84975E+01-8.58690E+00 2.94672E+02-2.04030E+00-5.17567E-01
 -1      3477 8.27748E+02 2.13034E+02-5.95529E+00 6.01421E+02-2.04561E+00-1.48943E+00
 -1      3478 9.31876E+01 1.24691E+02-6.95731E+00 3.38057E+02-1.13752E-01 3.14626E+00
 -1      3479-1.07654E+02 2.82398E+02 3.99154E+00 2.14149E+02-2.92590E+00 1.21767E+00
 -1      3480-9.79181E+01 2.79155E+02 1.12976E+00 2.12886E+02 6.68633E-01-4.29746E-01
 -1      3481-2.32407E+02 2.27176E+02-5.10536E-02 1.37652E+02-1.74437E-01-4.35522E-01
 -1      3482-1.54688E+02 2.31832E+02 2.58755E+00 1.59034E+02-2.37938E+00 3.27803E+00
 -1      3483-2.28614E+02 2.30470E+02 5.73010E-01 1.41698E+02-3.49099E+00 1.83525E+00
 -1      3484 6.50512E+03 2.33922E+02 1.03024E+01 1.42868E+03 1.10294E+01 1.10652E+01
 -1      3485 6.32336E+03 2.71464E+02 9.45885E+00 1.48862E+03 1.16667E+01 1.07890E+01
 -1      3486 5.66265E+03 2.24017E+02 3.83043E+00 1.36946E+03 1.29822E+01 9.09529E+00
 -1      3487 3.28916E+03 1.21089E+02-7.83629E+00 1.00189E+03 1.68173E+01 2.06928E+00
 -1      3488-2.27522E+02 1.97446E+02-1.23619E+00 1.15507E+02 5.38194E-01-3.05045E+00
 -1      3489 2.47301E+02 3.18046E+02-5.66248E+00 3.58678E+02 3.23252E-01-6.07178E-01
 -1      3490 3.99742E+02 3.59648E+02 1.26493E+00 4.41838E+02 2.27165E+00-1.08301E+00
 -1      3491-1.02234E+02 2.33272E+02-1.45157E+00 1.90182E+02 1.22212E+00 8.78152E-01
 -1      3492-5.07528E+03-9.85218E+02-1.10100E+03 3.70277E+02-5.50580E+01 4.74049E+00
 -1      3493-7.61900E+03-1.58900E+02-8.36104E+02 9.10195E+01-8.73320E+01-1.90502E+02
 -1      3494-3.64228E+02 2.60565E+01-4.18457E-01-7.37233E+01-2.71857E+00-7.48095E-01
 -1      3495 1.42308E+03 4.52670E+02 1.73243E+00 8.79100E+02-9.95072E-01 1.04992E+00
 -1      3496 1.10726E+03 4.34150E+02-8.24524E+00 7.71235E+02 1.76894E-01-3.12529E-01
 -1      3497-3.82087E+03-4.31658E+02 6.71162E+00-1.18929E+03-7.94669E-01 1.01023E+00
 -1      3498-2.10639E+03-1.72527E+02-1.68672E+01-4.42613E+02 4.58165E+00-2.75537E+00
 -1      3499-2.16031E+03-1.98547E+02-1.61632E+01-5.08568E+02-4.32131E+00-2.88925E-01
 -1      3500-7.55269E+02 5.67509E+01-3.55834E-01-6.25299E+01 2.36724E+00-1.94020E+00
 -1      3501-1.33775E+03-1.07299E+02-9.24240E+00-3.53806E+02 5.31282E+00 1.29257E+00
 -1      3502-1.37254E+02 1.80232E+02-8.59938E-01 2.08507E+02-8.81265E-02 3.92367E-01
 -1      3503-6.75081E+02-7.20128E+01 9.23701E-01-2.47559E+02-3.03846E+00 9.73621E-02
 -1      3504-2.98636E+02 1.83852E+02 3.38044E+00 7.53200E+01-6.02658E+00-7.77865E+00
 -1      3505-4.44094E+02 1.12513E+02 4.30352E-01-2.52303E+01-1.03128E+00-2.72784E+00
 -1      3506-1.23664E+02 1.74959E+02-2.95241E+00 2.15351E+02 1.24356E+00 2.94140E-01
 -1      3507 3.32173E+03-1.37320E+02 1.13805E+02 2.76890E+02 1.63398E+02-6.10596E+01
 -1      3508 2.95024E+03 1.73769E+02 5.06986E+02 2.22284E+02 7.49605E+01-1.62739E+02
 -1      3509-2.98182E+03-4.82024E+02 5.67624E+00-1.17476E+03 6.21500E+00 5.24376E+00
 -1      3510-9.75709E+02-1.65116E+02 4.43046E+00-4.15454E+02-5.22914E+00-6.37551E+00
 -1      3511-8.21852E+02-1.13538E+02 1.19724E+00-3.30481E+02-4.60385E+00-8.66302E+00
 -1      3512-6.07794E+02 6.30523E+01 2.90366E+00-1.08675E+02-1.57997E+00-3.37114E+00
 -1      3513-6.82897E+02 4.45697E+01 2.31308E-01-1.39915E+02-4.49006E+00-3.11161E+00
 -1      3514-9.08017E+02-1.40068E+02 2.81232E+00-3.73817E+02-4.86896E+00-6.68253E+00
 -1      3515 9.33925E+02 4.21577E+02-2.19703E+00 6.38390E+02-4.07635E+00-8.12131E+00
 -1      3516 7.72512E+02 3.70087E+02 1.11365E+00 5.52462E+02-5.65108E+00-8.71720E+00
 -1      3517 3.72414E+02 3.64665E+02 1.08227E+00 4.34143E+02-4.18304E+00-3.06805E+00
 -1      3518 4.29715E+02 3.88472E+02-6.61799E-01 4.74362E+02-1.25049E+00-4.95160E+00
 -1      3519 8.51288E+02 3.96678E+02-7.35399E-01 5.98488E+02-4.42199E+00-6.84169E+00
 -1      3520-9.08504E+02-1.45527E+02-2.15966E+00-3.82817E+02-6.48702E+00-5.85327E+00
 -1      3521-5.49899E+02 8.75301E+01 1.52767E+00-7.44466E+01-1.28769E+00-2.89610E+00
 -1      3522 8.67359E+02 4.00835E+02 4.07954E+00 6.01841E+02-3.07877E+00-9.20149E+00
 -1      3523 3.00880E+02 3.46848E+02 2.66439E+00 4.03826E+02-5.98821E+00-2.03993E+00
 -1      3524 7.66455E+02 3.71036E+02 2.60570E+00 5.51115E+02-6.01940E+00-7.74269E+00
 -1      3525 6.77530E+02 3.46244E+02-5.81379E-01 5.07142E+02-3.87033E+00-8.01231E+00
 -1      3526-8.09618E+02-1.15511E+02-5.11037E-01-3.32270E+02-4.11720E+00-8.19996E+00
 -1      3527-7.27702E+02-8.57768E+01 1.97011E+00-2.78900E+02-5.25235E+00-7.52101E+00
 -1      3528 1.93683E+01 1.91082E+02-8.37082E+00 2.84879E+02-7.24515E-01 1.21502E-01
 -1      3529-7.77438E+01-1.72198E+02-2.81627E+01 2.96303E+02 4.14560E+00 5.11883E-01
 -1      3530 2.70011E+03 6.79996E+02 5.44863E-01 1.38230E+03-7.01878E+00-7.35030E+00
 -1      3531 2.61088E+03 6.77689E+02 7.99736E+00 1.35830E+03-6.38381E+00-8.99131E+00
 -1      3532 1.38501E+03 4.86504E+02-2.82182E+00 8.97153E+02-5.85997E+00-4.05103E+00
 -1      3533 1.30824E+03 4.86347E+02-1.69782E-01 8.74832E+02-7.05257E+00-2.35353E+00
 -1      3534 2.33563E+03 6.16777E+02 3.96412E+00 1.23850E+03-7.01340E+00-7.09725E+00
 -1      3535-4.86560E+03-1.40791E+02-9.13185E+01 2.07562E+01 1.07756E+02-2.65307E+01
 -1      3536-7.45093E+03-1.53720E+02-2.41836E+02-1.09044E+02 6.02878E+01 6.27817E+01
 -1      3537-7.41548E+03-8.19191E+01-4.25051E+01-3.15616E+02 2.30019E+01-3.75344E+01
 -1      3538-4.29706E+03-2.15351E+02-2.59223E+01-4.99210E+01 2.38316E+01-3.76966E+01
 -1      3539-6.75505E+03-1.46501E+02-5.73995E+01-2.33896E+02 2.04662E+01-8.86909E+00
 -1      3540 3.09143E+03-6.96278E+00-2.64381E+01 8.04875E+02 1.86177E+00-1.58203E+00
 -1      3541-6.93244E+01 1.68495E+02-2.18082E+01 1.88521E+02-1.06789E+00 1.36677E+00
 -1      3542 1.04096E+02 1.67845E+02-4.37348E+00 1.68735E+02 1.80814E+00 6.28104E+00
 -1      3543-6.98267E+02 7.56150E+01-1.03857E+00-7.95437E+01 6.07306E-01-1.30723E+00
 -1      3544-1.50824E+02 1.92629E+02-3.23799E+00 1.86729E+02 1.22430E+00-1.48135E-01
 -1      3545-1.01399E+03-4.03353E+01 4.17750E+00-2.78820E+02-3.73209E+00-2.28697E+00
 -1      3546 1.76532E+03 5.74852E+02-1.68660E+00 1.02565E+03-2.93022E+00-2.47318E+00
 -1      3547 7.39905E+02 4.15845E+02-6.41931E+00 6.27159E+02-1.70980E+00-2.46217E+00
 -1      3548 9.68668E+02 4.56596E+02-1.65200E+00 7.25130E+02 5.46508E-01 1.62832E-01
 -1      3549-8.90316E+01-1.24058E+02-2.12498E+01 3.00770E+02 1.87866E+00-3.83871E-01
 -1      3550-7.02676E+03-1.40934E+02 1.59292E+01-5.91407E+02 1.24631E+01 1.36771E+01
 -1      3551-1.44995E+02 7.61023E+01 6.62089E+00 2.88282E+01-5.22044E+00-2.80146E+00
 -1      3552-1.17312E+02 2.24695E+02 2.40347E+01 9.83839E+01-2.50314E+00 1.87002E-01
 -1      3553 7.34119E+03 8.55632E+01 7.00561E+00 1.11657E+03-1.09134E+01-1.59925E+01
 -1      3554 7.15148E+03 1.08113E+02 3.07067E+00 1.20170E+03-1.56676E+01-1.40409E+01
 -1      3555 3.89627E+03-4.78625E+01-1.66408E+01 7.91833E+02-1.63202E+01-8.77194E+00
 -1      3556 6.41166E+03 6.26744E+01 1.10712E+00 1.09264E+03-1.57588E+01-1.43051E+01
 -1      3557 6.58116E+03 3.18747E+01 3.50198E+00 1.01712E+03-2.02306E+01-1.34142E+01
 -1      3558-2.63159E+03-1.82365E+02-2.32102E+01-3.83055E+02 3.12145E+00-2.82328E-01
 -1      3559 3.35984E+03-8.54490E+01-1.80018E+01 6.88544E+02 1.02199E+00 2.39978E+00
 -1      3560-2.86592E+03-1.80749E+02-1.64012E+01-3.22951E+02 6.25488E+00 1.67092E+00
 -1      3561-4.57538E+02-9.14093E+01-1.70992E+01 2.14393E+02 6.88401E-01 5.93998E-01
 -1      3562-5.91158E+01 2.08877E+02 1.77132E+00 2.32519E+02 2.85997E+00 2.85483E-01
 -1      3563-1.82985E+02 2.03795E+02 2.37982E+00 1.57251E+02 3.61489E-02 1.26980E-01
 -1      3564-7.05988E+02 4.05431E+01 2.55818E+00-1.45421E+02-3.49199E+00-1.86631E-01
 -1      3565-1.08137E+02 2.29851E+02-3.66736E+00 1.99693E+02 3.07942E-01 1.44012E+00
 -1      3566 4.49345E+02 3.69017E+02-3.00831E+00 4.82132E+02 2.56119E+00-3.13827E+00
 -1      3567 8.12671E+02 4.11597E+02-2.74892E+00 6.55899E+02 1.85610E+00 1.73193E+00
 -1      3568-2.92389E+02 1.09894E+02-3.71635E+00 1.65064E+02 2.53141E-01-6.78505E-01
 -1      3569 1.26116E+03 3.80348E+02-7.74228E+00 8.07969E+02-9.08276E-01 2.13701E+00
 -1      3570-1.58539E+03-1.27657E+02-4.79455E+00-4.06834E+02 4.58986E+00 4.76524E-01
 -1      3571-7.78887E+01 1.51846E+02-1.05236E+01 2.61318E+02-1.15345E+00-5.22769E-01
 -1      3572-4.66105E+02-4.60796E+01-2.13156E+01 2.01027E+02 1.55786E+00-2.02799E+00
 -1      3573 2.23393E+03 1.39875E+02-1.40886E+01 8.68569E+02-5.48202E+00-1.03042E+00
 -1      3574-6.33934E+01 3.73956E+01-1.77916E+01 2.95005E+02-2.62602E+00 9.24415E-01
 -1      3575-2.31552E+03-1.73659E+02-9.67810E+00-4.25988E+02 5.40549E+00 3.96937E-01
 -1      3576 1.92483E+03 2.26823E+02-2.16345E+01 8.85297E+02-2.95911E+00 4.35137E-01
 -1      3577 5.20676E+00-1.57424E+01-1.26399E+01 3.07921E+02-2.52258E+00-7.24626E-01
 -1      3578 3.99602E+03 5.65451E+02 9.99945E+00 1.58080E+03 4.11215E+00 2.74632E+00
 -1      3579 1.84874E+03 3.34317E+02-3.76899E+00 9.39464E+02 8.13597E+00 2.86824E+00
 -1      3580 2.10524E+03 3.84384E+02-1.05459E+01 1.04193E+03 5.74598E-01-8.18723E-01
 -1      3581 9.56828E+02 2.59606E+02-5.52405E+00 6.62959E+02 1.79148E+00 8.25502E-01
 -1      3582-1.87678E+02 8.28670E+01-1.09864E+01 2.26830E+02-2.33066E+00-4.69647E+00
 -1      3583-3.79392E+02 6.81795E+00-9.34215E+00 1.86039E+02 3.34565E+00 1.58795E+00
 -1      3584-2.87948E+03-7.28943E+02-3.39802E+02-2.68086E+02-1.07240E+01-2.29034E+02
 -1      3585-3.79718E+03-6.62380E+02-6.82793E+02 1.30583E+02-9.59143E+01-2.96268E+02
 -1      3586-4.53143E+02-6.58393E+00 4.18937E+00-1.35205E+02 4.69994E+00 8.59732E+00
 -1      3587-3.73924E+02 1.31327E+01 7.10575E+00-9.28476E+01 5.47966E+00 8.08460E+00
 -1      3588-4.30392E+02-4.85499E+00 2.88008E+00-1.23747E+02 3.00452E+00 4.54780E+00
 -1      3589-3.68582E+02 1.30303E+02 2.25205E+00 1.27348E+01 2.55299E+00 4.63361E+00
 -1      3590 3.95216E+02 3.29171E+02-3.98753E+00 4.60822E+02 2.86385E+00-1.45501E+00
 -1      3591-5.07657E+02 9.33628E+01-1.36399E+00-6.66008E+00-2.37152E+00 8.91224E-01
 -1      3592-6.88372E+02 5.36004E+01-1.33976E+00-9.14538E+01-3.02879E+00-2.11087E+00
 -1      3593 1.13429E+03 4.66145E+02 6.77511E-01 7.43023E+02 5.74515E+00 7.58201E+00
 -1      3594-6.95480E+01 1.26381E+02 2.17257E+01 1.78969E+01-2.70934E+00-2.79473E+00
 -1      3595-1.15657E+02 2.27107E+02 2.20725E+01 9.12658E+01-3.60112E+00-1.22023E-03
 -1      3596-3.86991E+02 5.77347E+00 2.11574E+00-9.98973E+01-3.05153E-01 1.75727E+00
 -1      3597-1.41792E+02 1.94434E+02-6.37044E+00 1.99759E+02-1.27036E+01 8.53803E+00
 -1      3598-9.14093E+01 1.94106E+02-3.87467E+00 1.94233E+02-8.06951E+00 6.02023E+00
 -1      3599-1.22769E+03-1.70050E+02-2.01610E+01 1.07128E+02 8.84029E+00 1.72737E+00
 -1      3600 1.78958E+03-8.23026E+01-3.87854E+01 6.07031E+02-5.86496E-01-2.95978E+00
 -1      3601 1.89609E+03-1.34724E+02-2.89956E+01 5.59568E+02-1.27194E+01-5.52090E+00
 -1      3602-7.01262E+03-1.34483E+02 1.97960E+01-5.98003E+02-1.18867E+01-1.39311E+01
 -1      3603-6.85141E+02-7.14596E+01-1.10462E+00-2.46210E+02 2.74161E+00 2.54069E+00
 -1      3604-1.30057E+03-1.83256E+02-2.83059E+01 1.41223E+02 4.35094E-02 4.91114E+00
 -1      3605-2.48799E+03-4.33508E+02 4.18288E+00-9.98430E+02-5.90819E-01-3.15883E+00
 -1      3606-1.40298E+03-1.19390E+02-8.70199E+00-3.89862E+02 6.02829E-01-4.36379E-02
 -1      3607-2.36416E+03-4.09111E+02 5.87730E-01-9.58564E+02 8.20939E-01 2.66932E+00
 -1      3608-2.39562E+03-4.15411E+02 1.36057E+00-9.80706E+02-5.36230E+00 6.62085E-01
 -1      3609-1.32252E+03-1.09542E+02-1.88632E+00-3.76092E+02-3.63699E+00 3.42568E-01
 -1      3610-1.44036E+03-1.26587E+02-3.66956E+00-4.09928E+02-2.44405E+00-1.42373E+00
 -1      3611-2.38849E+02 1.88667E+02 3.32101E+00 1.12572E+02 2.95236E+00-1.46028E+00
 -1      3612 1.05174E+02 3.08282E+02-4.60777E+00 2.99654E+02-8.96886E-01-4.86071E+00
 -1      3613 1.61200E+02 3.07330E+02 1.01482E+00 3.39685E+02-4.63551E+00-1.59229E+00
 -1      3614-2.52052E+02 1.82194E+02 9.66514E-01 1.02067E+02-1.13213E+00-2.59724E+00
 -1      3615-2.98299E+02 1.71271E+02 5.22454E-01 7.49699E+01-7.13525E-01-3.39401E+00
 -1      3616-1.43760E+03-1.75731E+02-2.35614E+01 1.21060E+02-1.75807E+00-2.91514E+00
 -1      3617 2.12294E+02 2.87755E+02 8.48220E-01 3.61113E+02-1.39004E+00-1.62258E+00
 -1      3618 3.87344E+02 3.33587E+02 4.70559E-01 4.59328E+02-2.40752E+00-2.70690E+00
 -1      3619-2.78448E+03-4.73993E+02 4.22572E+00-1.12862E+03-5.50581E+00-7.00707E+00
 -1      3620-2.66128E+03-4.71199E+02 4.28297E+00-1.09876E+03-3.61275E+00-6.47307E+00
 -1      3621-1.74649E+03-1.81655E+02 1.82805E+00-5.37987E+02-7.23464E+00-3.32060E+00
 -1      3622-2.43550E+03-4.27446E+02 3.02206E+00-9.83884E+02-7.14236E+00-7.39434E+00
 -1      3623-2.55374E+03-4.29672E+02 3.21183E+00-1.01055E+03-6.44753E+00-7.22719E+00
 -1      3624 6.43029E+02 1.66289E+02-1.49710E+01 5.19896E+02 7.03154E+00 4.18140E+00
 -1      3625 9.39567E+02 2.34883E+02-1.23920E+01 6.43903E+02 7.85060E+00 8.20160E+00
 -1      3626-7.92367E+03-3.81737E+02-1.76087E+03 1.09207E+02-7.38658E+01-3.06366E+02
 -1      3627-5.36263E+03-1.06204E+03-1.21744E+03 3.61794E+02-6.92624E+01-2.23051E+02
 -1      3628-6.44781E+03-1.90343E+02 5.83917E+00-8.77018E+02-9.99427E+00-6.19821E+00
 -1      3629-6.57815E+03-1.87715E+02 6.43777E+00-8.28734E+02-1.52056E+01-5.98044E+00
 -1      3630-5.89687E+03-2.08496E+02 8.46514E+00-7.97344E+02-1.81473E+01-5.75712E+00
 -1      3631-3.99456E+03-1.79528E+02-1.05851E+01-3.13144E+02-1.80694E+01-2.51211E-02
 -1      3632-3.88670E+03-1.75904E+02-1.29009E+01-3.44217E+02-1.31400E+01-3.75673E+00
 -1      3633-2.80711E+02 1.83292E+02-1.22897E+00 8.80970E+01-1.10047E+00 5.54015E+00
 -1      3634-1.34581E+03-1.82884E+02-2.14867E+01 8.19024E+01-2.21888E+00-3.36203E+00
 -1      3635 2.74325E+02 3.08341E+02-6.07696E-01 3.92398E+02 1.66025E+00 2.46682E+00
 -1      3636 5.42272E+01 8.57331E+01-2.03037E+01 1.63470E+02 8.28618E-01 3.80488E+00
 -1      3637-6.92918E+01 1.64156E+02-1.83384E+01 1.94052E+02-2.14725E+00 3.81356E+00
 -1      3638 8.20137E+02 1.84346E+02-1.37226E+01 5.77429E+02-4.43468E+00-5.43093E+00
 -1      3639-1.44179E+03-1.14079E+02-9.90928E+00-3.91972E+02 2.77811E+00-9.86465E-01
 -1      3640-1.23141E+03-5.17417E+01-1.26618E+01-1.37624E+02-3.49432E+00-3.14588E-01
 -1      3641-6.73248E+03-1.65237E+02 1.35605E+01-7.45017E+02-1.48439E+01-8.33966E+00
 -1      3642-6.04134E+03-1.90902E+02 7.25123E+00-7.23301E+02-1.18162E+01-8.88264E+00
 -1      3643-4.11524E+03-1.86358E+02-6.89138E+00-2.55041E+02-2.06147E+01-2.40117E+00
 -1      3644-6.18305E+03-1.91909E+02 1.10539E+01-6.50452E+02-1.63014E+01-1.00796E+01
 -1      3645 6.29609E+02 3.44537E+02-1.04043E+01 5.66529E+02 2.77753E+00-2.84486E+00
 -1      3646-5.69386E+02 7.60940E+01-8.95776E+00 1.49826E+01-2.19754E+00 2.14055E+00
 -1      3647 6.99809E+02 3.24515E+02-3.30654E+00 5.98194E+02-5.73100E+00-3.05839E+00
 -1      3648-7.38532E+03-9.97647E+01-2.32784E+01-3.31276E+02-6.45958E+00 5.67499E+00
 -1      3649-4.40413E+03-1.81723E+02-1.75233E+01-8.88972E+01-7.04107E+00 3.33432E+01
 -1      3650 2.87233E+03 2.24903E+02 4.48336E+02 3.72325E+02-3.72359E+01 4.80357E+01
 -1      3651 5.87141E+02 3.23628E+02 1.91729E+00 4.48835E+02 3.54211E+00 7.38596E+00
 -1      3652 1.07854E+02 3.07627E+02-3.94769E+00 3.10684E+02 3.85959E+00 3.09097E+00
 -1      3653 2.73149E+02 3.40693E+02 4.87050E-01 3.76930E+02 1.09433E+00 5.63668E+00
 -1      3654-2.57243E+03-4.57796E+02 5.62130E-01-1.07574E+03-4.98844E+00-6.60350E+00
 -1      3655-1.67458E+03-1.70933E+02-4.24061E+00-5.21098E+02-6.33713E+00-1.00272E+00
 -1      3656-2.34229E+03-4.10818E+02 1.68132E+00-9.66480E+02-6.89737E+00-6.74037E+00
 -1      3657-1.59919E+03-1.54965E+02-2.74260E+00-5.03338E+02-2.58879E+00-4.60298E+00
 -1      3658 4.19192E+02 2.73752E+02 2.71514E+00 3.56598E+02 3.72960E+00 7.71105E+00
 -1      3659 3.13111E+02 2.36732E+02-1.66626E+00 2.94138E+02 5.14991E+00 4.47322E+00
 -1      3660 2.99364E+02 2.68337E+02 4.77295E-01 3.20242E+02 3.66866E+00 5.84354E+00
 -1      3661 7.47352E+01 3.04941E+02 5.93393E-01 2.87314E+02 4.58149E-01 3.89801E+00
 -1      3662-3.72320E+03-2.32086E+02-4.71662E+01 1.43189E+01 3.78030E+00 3.24529E+00
 -1      3663 2.99939E+03 1.91056E+02 5.24618E+02 2.43917E+02-8.95617E+01 1.50627E+02
 -1      3664 3.32827E+03-1.41682E+02 1.13208E+02 2.87185E+02-1.69817E+02 5.72074E+01
 -1      3665-2.41570E+03-4.05240E+02 1.17274E+01-9.61181E+02 1.80218E+00 1.25203E+00
 -1      3666-1.53523E+02-2.25575E+02-2.70803E+01 3.20111E+02 2.54756E+01 7.08425E+00
 -1      3667-9.11415E+01 2.80990E+02 3.47179E+00 2.21061E+02-1.56432E+00-1.27851E+00
 -1      3668-1.58006E+02 2.27109E+02 2.43973E+00 1.56165E+02 6.62113E-01-8.07539E-01
 -1      3669-7.23410E+03-1.06446E+02 5.97541E+00-4.33968E+02 5.74831E+00 2.94119E+01
 -1      3670-6.72086E+03-1.50321E+02 1.32765E+01-3.60331E+02 7.81088E+00 3.39681E+01
 -1      3671 8.00458E+03-9.84985E+01 3.01184E+01 5.66073E+02 2.66410E+01 2.37919E+01
 -1      3672 7.14575E+03-7.50735E+01 2.31865E+01 7.25884E+02 3.43498E+01 3.39667E+01
 -1      3673-5.43750E+02 6.93954E+01-5.42532E+00 1.32099E+01 1.72751E+00 1.98847E+00
 -1      3674 1.37657E+03 5.07632E+02 1.32680E+00 8.96190E+02 7.84839E+00 2.71761E+00
 -1      3675 4.91806E+02 3.35961E+02 3.42227E+00 5.21069E+02 9.29697E-01 1.59635E+00
 -1      3676 6.72120E+02 3.46956E+02-9.91687E+00 5.96482E+02 3.96499E+00 7.80831E-01
 -1      3677 8.01214E+03-4.39835E+01 3.08305E+01 7.13537E+02 1.66377E+01 1.90340E+01
 -1      3678 4.19667E+03-1.66333E+02-1.20183E+01 5.91137E+02 4.49131E+01 3.33204E+01
 -1      3679-9.87009E+02-1.65696E+02 1.76296E+00-4.19150E+02 4.64942E+00 7.78867E+00
 -1      3680-8.86215E+02-1.42566E+02-4.65268E+00-3.70619E+02 3.79173E+00 6.48473E+00
 -1      3681-7.24026E+02-7.88512E+01 1.27559E+00-2.75135E+02 3.98512E+00 4.93502E+00
 -1      3682-5.98523E+02 7.01167E+01-1.84779E-01-1.02373E+02 1.55652E+00 4.75290E+00
 -1      3683-8.16148E+02-1.00887E+02 3.12356E+00-3.23903E+02 1.00716E+00 8.20479E+00
 -1      3684-8.11191E+02-1.13708E+02 1.39546E+00-3.29046E+02 4.98409E+00 8.96404E+00
 -1      3685-5.46369E+02 8.79491E+01 5.21496E-01-7.30633E+01 2.92327E+00 4.31713E+00
 -1      3686-6.44589E+02 5.09322E+01 4.39497E+00-1.22592E+02 4.85640E+00 3.51751E+00
 -1      3687-8.77867E+02-1.26299E+02 8.36077E+00-3.52666E+02 6.00570E+00 5.71486E+00
 -1      3688 1.95309E+03 5.34235E+02-3.13678E+00 1.07537E+03 1.55614E+00 1.34614E-01
 -1      3689 2.42790E+03 6.26297E+02 5.62886E+00 1.27132E+03-8.05764E-02 3.37785E+00
 -1      3690 6.03463E+02 3.51541E+02 3.11797E+00 4.88464E+02 4.10917E-02 1.75591E-01
 -1      3691 8.62806E+02 3.99324E+02-3.21331E-01 5.94962E+02 4.12568E+00 1.92355E+00
 -1      3692-9.28884E+01 2.60588E+02-1.08344E+00 2.17404E+02-1.75894E+00-2.10473E+00
 -1      3693 1.05722E+02 3.16731E+02-5.41955E+00 3.25060E+02 1.64384E+00 1.45854E+00
 -1      3694 2.11271E+02-1.15702E+02-1.65406E+01 3.63319E+02-4.50490E-01-2.05338E+00
 -1      3695 1.59896E+03-1.00546E+02-2.03462E+01 5.31005E+02 1.11645E+01 4.40925E+00
 -1      3696 5.16195E+03 1.78231E+00-5.61495E+00 9.48819E+02 2.06988E+00-3.82453E-01
 -1      3697 6.70275E+03 5.00325E+01 6.26615E+00 1.06506E+03 1.22700E+01 6.19121E+00
 -1      3698 1.74435E+02 1.96498E+02-4.82095E+00 2.19718E+02-4.51169E+00-6.57467E+00
 -1      3699-3.22272E+00 2.65196E+02 1.78105E+00 2.20620E+02-1.71985E+00-5.17421E+00
 -1      3700 2.29161E+02 2.08444E+02-3.19357E-01 2.43128E+02-4.29103E+00-6.44815E+00
 -1      3701 2.54178E+02 2.30390E+02 5.75291E-01 2.68865E+02-9.36608E-01-6.94666E+00
 -1      3702 5.75817E+01 2.85682E+02 2.80156E+00 2.57954E+02-1.46737E+00-4.78808E+00
 -1      3703-6.74130E+03-1.63132E+02 1.14140E+01-7.43120E+02 1.53578E+01 7.88418E+00
 -1      3704-3.88540E+03-1.79705E+02-1.12127E+01-2.83061E+02 1.76416E+01 1.90885E+00
 -1      3705-5.93718E+03-1.87442E+02 7.61759E+00-6.90425E+02 1.02829E+01 7.36299E+00
 -1      3706-6.05224E+03-1.92355E+02 1.12539E+01-6.36444E+02 1.74844E+01 7.49817E+00
 -1      3707-3.96683E+03-1.89008E+02-7.84735E+00-2.42169E+02 1.84106E+01 3.05756E+00
 -1      3708-6.58163E+03-1.86573E+02 3.94865E+00-8.24455E+02 1.47291E+01 7.76129E+00
 -1      3709-5.78505E+03-2.18050E+02 4.33454E+00-7.61125E+02 1.68549E+01 4.88660E+00
 -1      3710-6.44922E+03-1.94268E+02 8.02487E+00-8.73412E+02 1.29094E+01 6.20504E+00
 -1      3711-3.78593E+03-1.82845E+02-1.02003E+01-3.16870E+02 1.87838E+01-1.19143E-01
 -1      3712-6.03781E+03-2.46959E+02 5.97845E+00-1.03154E+03-1.46729E+01-3.79143E+00
 -1      3713-3.35948E+03-1.84073E+02-6.64397E+00-4.24628E+02-1.39688E+01-3.75899E+00
 -1      3714-5.85999E+03-2.65811E+02 1.17921E+01-1.08626E+03-1.06769E+01-5.72042E+00
 -1      3715-5.19683E+03-2.65840E+02 2.10377E+00-9.25975E+02-1.29270E+01-5.67397E+00
 -1      3716 1.24086E+03 4.91588E+02-3.69146E+00 7.95031E+02 5.03814E+00 7.29682E+00
 -1      3717 1.13322E+03 4.67885E+02-6.97260E-01 7.47329E+02 3.17687E+00 6.33706E+00
 -1      3718 1.32009E+03 5.15213E+02 9.66668E-01 8.38742E+02 6.37765E+00 9.45700E+00
 -1      3719 5.81506E+02 4.16551E+02-2.95190E-01 5.54177E+02 3.24438E+00 5.52428E+00
 -1      3720-1.26981E+03-2.37666E+02 8.33983E+00-5.61487E+02 6.73282E+00 6.85784E+00
 -1      3721-1.19743E+03-2.04087E+02-5.90809E-01-5.05778E+02 4.30789E+00 5.33994E+00
 -1      3722 1.41107E+03 5.28959E+02 7.02224E+00 8.76331E+02 6.00271E+00 6.70281E+00
 -1      3723-1.34737E+03-2.54867E+02 3.85098E+00-5.96759E+02 4.28551E+00 7.49807E+00
 -1      3724-8.26987E+02 7.64291E+00 2.21401E+00-2.06888E+02 3.26052E+00 6.14436E+00
 -1      3725-1.46342E+03-2.81025E+02-3.33537E-01-6.49614E+02 5.19223E+00 6.28378E+00
 -1      3726-2.24444E+03-4.21061E+02 7.63589E-01-9.67191E+02-7.23925E+00-4.93423E+00
 -1      3727-1.25761E+03-9.17184E+01 2.41468E-01-3.72833E+02-4.02326E+00-2.88170E+00
 -1      3728-2.12327E+03-4.04899E+02 4.14093E+00-9.23765E+02-4.50361E+00-6.63996E+00
 -1      3729-1.86764E+03-3.32447E+02 5.79956E+00-7.83121E+02-5.25277E+00-4.37676E+00
 -1      3730 2.24133E+03 6.50822E+02 8.18754E+00 1.22739E+03-7.33915E+00-7.73870E+00
 -1      3731 1.82860E+03 5.74110E+02-5.72540E+00 1.05428E+03-3.50071E+00-6.70049E+00
 -1      3732 2.13871E+03 6.44055E+02 1.70496E+00 1.19480E+03-6.81083E+00-8.29895E+00
 -1      3733 9.97061E+02 4.69212E+02-1.01643E+00 7.47634E+02-2.06580E+00-5.84003E+00
 -1      3734-5.74161E+03-2.79368E+02 1.59569E+01-1.12431E+03-1.40831E+01-2.90093E+00
 -1      3735-4.75432E+03-3.96500E+02 6.96972E+00-1.29915E+03-9.14413E+00-5.47284E+00
 -1      3736-4.60044E+03-4.21410E+02 6.75952E+00-1.30639E+03-8.71043E+00-4.75352E+00
 -1      3737-2.74730E+03-1.92298E+02-9.38119E+00-5.47848E+02-9.75861E+00-1.98785E+00
 -1      3738-4.22658E+03-3.66676E+02-4.19908E+00-1.11279E+03-8.40890E+00-5.18279E+00
 -1      3739-3.12071E+03-4.80834E+02 1.01470E+01-1.20288E+03-7.30905E+00-3.80027E+00
 -1      3740-2.84912E+03-4.18562E+02 2.17473E-01-1.04697E+03-6.61204E+00-4.51996E+00
 -1      3741-3.22837E+03-4.81135E+02 3.67878E+00-1.21864E+03-6.39703E+00-7.09655E+00
 -1      3742-1.87450E+03-1.70809E+02-2.13488E+00-5.23586E+02-7.33486E+00-4.53507E+00
 -1      3743 3.21481E+03 6.83009E+02-2.14200E+00 1.51815E+03-7.50610E+00-1.01053E+01
 -1      3744 2.85658E+03 5.98433E+02 1.88417E+00 1.36403E+03-6.68828E+00-6.19551E+00
 -1      3745 5.80596E+03 3.68638E+02 1.47804E+01 1.59225E+03 1.36828E+01 8.89777E+00
 -1      3746 4.84365E+03 3.22844E+02-6.61383E+00 1.43511E+03 1.02408E+01 6.23930E+00
 -1      3747 5.64910E+03 3.99473E+02 5.43435E+00 1.62341E+03 1.11982E+01 1.08173E+01
 -1      3748 2.75894E+03 2.06504E+02-7.97387E+00 1.01602E+03 9.87704E+00 5.24752E+00
 -1      3749 3.31056E+03 6.82780E+02 1.56210E+00 1.54375E+03-7.87699E+00-9.61681E+00
 -1      3750 1.58137E+03 4.45804E+02-6.16817E+00 9.43174E+02-8.14501E+00-5.76964E+00
 -1      3751 6.18742E+03 3.01613E+02 2.65004E+00 1.52096E+03-1.31197E+01-1.33523E+01
 -1      3752 5.41942E+03 2.06856E+02 2.62652E+00 1.31738E+03-1.17708E+01-7.58433E+00
 -1      3753 6.31786E+03 2.75771E+02 6.57172E+00 1.49407E+03-1.11233E+01-1.22796E+01
 -1      3754 3.07971E+03 1.03115E+02-1.23623E+01 9.54516E+02-1.38969E+01-6.65631E+00
 -1      3755 6.51944E+03 2.34422E+02 9.87389E+00 1.43754E+03-1.30108E+01-1.06461E+01
 -1      3756 3.46976E+03 6.76445E+02 5.68205E+00 1.57549E+03-7.62975E+00-8.86245E+00
 -1      3757-3.32981E+03-4.89722E+02-2.56858E+00-1.23990E+03-6.31881E+00-4.35401E+00
 -1      3758 4.89242E+03 5.21802E+02-1.20048E+00 1.68210E+03-1.17159E+01-1.20510E+01
 -1      3759 4.33694E+03 4.25411E+02 6.80354E+00 1.48861E+03-1.13694E+01-4.60848E+00
 -1      3760-5.32789E+03-3.43615E+02 1.16584E+01-1.23777E+03 1.06005E+01 5.13255E+00
 -1      3761-5.50947E+03-3.22686E+02 5.73136E+00-1.20388E+03 1.37172E+01 4.48188E+00
 -1      3762-3.06960E+03-1.95515E+02-4.69589E+00-5.15121E+02 1.31521E+01 1.94308E+00
 -1      3763-4.66899E+03-3.17907E+02 1.05243E+01-1.04550E+03 1.26899E+01 3.94615E+00
 -1      3764 4.55721E+03 5.71445E+02 1.07881E+01 1.68424E+03 1.10335E+01 8.24615E+00
 -1      3765 4.45829E+03 5.93917E+02 4.13640E+00 1.69422E+03 9.80669E+00 9.50696E+00
 -1      3766 3.79552E+03 5.05465E+02-7.36243E+00 1.48859E+03 8.39610E+00 6.64265E+00
 -1      3767 2.18273E+03 3.67772E+02-4.23792E+00 1.04464E+03 7.78871E+00 5.38983E+00
 -1      3768 5.04007E+03 5.07431E+02 5.47353E+00 1.68826E+03-1.08077E+01-1.22965E+01
 -1      3769 2.46420E+03 2.85677E+02-4.94370E+00 1.04285E+03-1.14185E+01-3.53877E+00
 -1      3770-4.09646E+03-4.64461E+02 5.34720E+00-1.31914E+03 6.05511E+00 5.50503E+00
 -1      3771-2.46473E+03-2.03324E+02-8.18809E+00-5.76256E+02 1.03867E+01 2.49839E+00
 -1      3772-4.36147E+03-4.48870E+02 6.43635E-01-1.32893E+03 9.57448E+00 6.15430E+00
 -1      3773-3.73635E+03-4.03667E+02 3.76879E+00-1.13350E+03 9.23374E+00 4.01975E+00
 -1      3774-6.41693E+02 6.44039E+01-3.39311E+00-2.04089E+01-2.10213E+00-2.68302E+00
 -1      3775-5.90638E+02 5.59500E+01-4.49692E+00-8.61693E+00-1.62020E+00-2.33258E+00
 -1      3776-4.24969E+03-4.51687E+02 3.99871E+00-1.32617E+03 8.29891E+00 5.73293E+00
 -1      3777 8.39562E+02 4.57418E+02 3.75490E+00 6.81863E+02 7.18349E+00 7.90253E-01
 -1      3778 1.55754E+03 5.41606E+02 2.73184E+00 9.42900E+02 5.65530E+00 8.04778E+00
 -1      3779 1.72404E+03 5.85008E+02 2.41406E+00 1.02390E+03 6.84141E+00 9.09962E+00
 -1      3780 1.00204E+03 4.85948E+02 2.95848E-03 7.51248E+02 3.40767E+00 4.06569E+00
 -1      3781 1.73384E+03 5.73141E+02 1.56541E+00 1.01404E+03 4.42339E+00 9.63201E+00
 -1      3782-3.84584E+03-4.84304E+02-3.18339E+00-1.31274E+03 8.42175E+00 6.98859E+00
 -1      3783-3.26066E+03-4.17176E+02 5.60125E+00-1.10203E+03 8.39281E+00 2.80238E+00
 -1      3784-5.56815E+02-3.66241E+01 8.50594E-01-1.93477E+02 6.84546E+00 8.05320E+00
 -1      3785-3.72593E+03-4.81989E+02 5.38571E+00-1.29708E+03 7.69694E+00 5.60186E+00
 -1      3786-2.16632E+03-1.93456E+02-2.89816E+00-5.64005E+02 8.96771E+00 8.85144E-01
 -1      3787-7.38693E+03-9.39404E+01-2.23338E+01-3.29725E+02 3.97222E+00-7.11528E+00
 -1      3788-4.26370E+03-1.82372E+02-1.28673E+01-6.86744E+01 1.03549E+01-3.66278E+01
 -1      3789 4.65836E+03-2.28776E+02 7.73230E+01 4.40726E+02-1.11781E+02-1.74681E+01
 -1      3790 7.90986E+03-7.64420E+01 2.81071E+02 5.34745E+02-6.47914E+01 9.86964E+01
 -1      3791 8.19913E+03-1.27495E+02 9.70238E+01 3.89353E+02-4.16309E+01 1.16096E+01
 -1      3792 3.98030E+03-2.00067E+02-1.51925E+00 4.54381E+02-5.97800E+01-3.89962E+01
 -1      3793 7.10244E+03-1.03109E+02 1.00418E+02 5.69966E+02-4.32944E+01 1.83850E+01
 -1      3794-2.61430E+03-2.20809E+02-9.33641E-01-6.27689E+02-1.35818E+01 1.66051E+00
 -1      3795-3.87428E+03-4.23859E+02 5.55202E+00-1.18703E+03-9.73994E+00-6.22919E+00
 -1      3796-4.22159E+03-4.53676E+02 6.46582E+00-1.32172E+03-9.00162E+00-6.19498E+00
 -1      3797-2.65727E+03-2.33963E+02-3.29077E+00-6.89828E+02-9.14249E+00-1.98170E-01
 -1      3798-3.90046E+03-4.41660E+02 5.30612E+00-1.25180E+03-7.64783E+00-7.28448E+00
 -1      3799 2.34894E+03 3.82675E+02-1.00165E+01 1.09360E+03-5.02484E+00-5.28515E+00
 -1      3800 3.98366E+03 5.25675E+02 9.06039E-01 1.53280E+03-1.01015E+01-7.11863E+00
 -1      3801 4.43709E+03 5.97385E+02 4.64181E+00 1.68413E+03-8.13965E+00-1.02828E+01
 -1      3802 2.42607E+03 4.16670E+02-4.98072E+00 1.14182E+03-1.05717E+01-3.04260E+00
 -1      3803 4.04497E+03 5.64486E+02 3.29060E+00 1.58629E+03-1.10153E+01-8.25061E+00
 -1      3804 4.88140E+02 2.94423E+02 5.51481E+00 3.95831E+02 4.26288E+00 7.14867E+00
 -1      3805 7.80952E+02 4.47898E+02-1.93258E+00 6.56239E+02-3.17817E+00-3.48769E+00
 -1      3806 1.47427E+03 5.33654E+02 2.44920E+00 9.09217E+02-4.47307E+00-4.83743E+00
 -1      3807 1.71284E+03 5.87146E+02 1.46371E+00 1.01722E+03-5.24320E+00-8.24659E+00
 -1      3808 8.66667E+02 4.65212E+02-7.33177E-01 6.84918E+02-5.85216E+00-4.52485E+00
 -1      3809 1.53407E+03 5.35747E+02-8.96730E-01 9.25770E+02-6.90284E+00-8.97649E+00
 -1      3810 6.36808E+02 4.07905E+02 3.11514E+00 5.76622E+02-1.06549E+00-4.99379E+00
 -1      3811-1.04650E+03-4.51342E+01 1.18461E+00-2.94847E+02-3.87313E+00-1.87233E+00
 -1      3812-1.53352E+03-2.77652E+02-4.26418E-01-6.49094E+02-4.13140E+00-4.09601E+00
 -1      3813-1.72646E+03-3.40720E+02 2.46645E+00-7.67042E+02-5.44079E+00-6.08268E+00
 -1      3814-1.09549E+03-7.92030E+01 8.11086E-01-3.45267E+02-2.82767E+00-4.91480E+00
 -1      3815-1.54746E+03-3.03887E+02 4.50568E+00-6.92079E+02-5.53565E+00-9.09847E+00
 -1      3816-8.99559E+02-1.88465E+01-5.21293E+00-2.31381E+02-5.72667E+00-2.93625E+00
 -1      3817 1.47603E+03 4.91940E+02-4.28778E+00 9.25465E+02-1.47822E+00-5.41857E+00
 -1      3818 2.38145E+03 6.15317E+02 4.77170E+00 1.25082E+03 1.16412E+00-6.70741E-01
 -1      3819 2.49244E+03 6.20258E+02 1.70480E+00 1.27660E+03-4.39067E+00-7.14043E-01
 -1      3820 2.44059E+03 6.22052E+02-1.83874E-01 1.26423E+03-7.08690E+00-8.95716E+00
 -1      3821 2.55315E+03 6.26115E+02 3.04527E+00 1.29647E+03-7.50677E+00-6.82248E+00
 -1      3822-7.22893E+03-1.09434E+02 1.00922E+01-4.32471E+02-6.05283E+00-3.32666E+01
 -1      3823-6.58061E+03-1.57302E+02 7.44492E+00-3.32522E+02-1.59085E+00-3.41580E+01
 -1      3824 5.18444E+03 3.84763E+02 9.59341E-01 1.55343E+03 1.22565E+01 7.81952E+00
 -1      3825 3.11849E+03 2.66450E+02-5.99719E+00 1.13033E+03 1.34819E+01 5.46405E+00
 -1      3826 2.35177E+03 1.86402E+02-8.94596E+00 9.39836E+02 8.43883E+00 3.26274E+00
 -1      3827-4.68945E+03-3.92615E+02-1.56033E+00-1.22201E+03-1.33974E+01-4.88776E+00
 -1      3828-3.18955E+03-2.24703E+02-4.24904E+00-6.58830E+02-1.32487E+01-1.57408E-01
 -1      3829-2.61682E+03-1.92314E+02-6.21701E+00-4.72863E+02-9.94642E+00-3.22323E+00
 -1      3830 7.27799E+02 3.55227E+02 2.53786E+00 5.29679E+02 9.42123E-01-2.86643E+00
 -1      3831 8.09328E+02 3.86060E+02-1.53685E+00 5.75538E+02-6.54857E-01-2.87911E-01
 -1      3832-3.29512E+02 1.84056E+02 1.86084E+00 8.01469E+01-1.78477E+00-3.16976E-01
 -1      3833-3.83912E+02 1.72110E+02 4.25263E-02 4.93410E+01-1.76858E-01-1.89456E+00
 -1      3834 3.65368E+03 7.35279E+00-8.47130E+00 8.80542E+02-1.96545E+01-4.44736E+00
 -1      3835 3.77513E+03-2.26353E+01-1.08656E+01 8.27049E+02-1.53402E+01-6.29046E+00
 -1      3836 6.32684E+03 7.06104E+01 9.38004E+00 1.12296E+03-5.17973E+00 2.00871E+00
 -1      3837 6.27805E+03 9.39118E+01 6.49878E+00 1.16151E+03-1.61117E+01-9.94023E+00
 -1      3838 6.47844E+03 4.44637E+01 5.63597E+00 1.05330E+03-1.02602E+01-5.93996E+00
 -1      3839 1.84032E+03 6.00791E+02-7.41717E-01 1.06623E+03 7.07557E+00 9.57379E+00
 -1      3840 1.92083E+03 6.16265E+02-1.26173E+00 1.10287E+03 5.67150E+00 1.01663E+01
 -1      3841 1.06511E+03 4.96746E+02-2.10214E-01 7.84567E+02 3.36101E+00 3.25211E+00
 -1      3842 1.84498E+03 5.85441E+02 3.39260E+00 1.06103E+03 7.18003E+00 7.69372E+00
 -1      3843-1.53872E+03-3.03388E+02 9.15556E-01-6.90367E+02-3.82011E+00-7.78590E+00
 -1      3844-1.64627E+03-3.26615E+02-8.10334E-01-7.36083E+02-7.44390E+00-5.79095E+00
 -1      3845-1.44532E+03-2.85950E+02 4.30050E+00-6.44451E+02-5.37564E+00-8.08232E+00
 -1      3846-1.03023E+03-5.55056E+01 1.20534E+00-3.11917E+02-1.14507E+00-3.02493E+00
 -1      3847 1.63415E+03 5.71688E+02 4.47657E+00 9.80086E+02-3.62320E+00-1.01056E+01
 -1      3848 7.88947E+02 4.57487E+02-1.14370E+00 6.55434E+02-5.00103E+00-2.27501E+00
 -1      3849 1.52126E+03 5.49171E+02 2.37312E+00 9.30393E+02-6.75854E+00-8.43250E+00
 -1      3850 1.42560E+03 5.19123E+02-1.25132E+00 8.76048E+02-6.14931E+00-8.22268E+00
 -1      3851-5.01133E+03-3.72873E+02 9.42607E+00-1.27127E+03-1.02326E+01-5.66562E+00
 -1      3852-4.90119E+03-3.85740E+02 9.16829E+00-1.28855E+03-9.47869E+00-5.20661E+00
 -1      3853-4.82650E+03-3.73962E+02 3.07422E+00-1.20685E+03-1.31119E+01-6.38114E+00
 -1      3854-3.28493E+03-2.16885E+02-5.98232E+00-6.43467E+02-1.32474E+01 4.43477E-01
 -1      3855 5.52437E+03 4.23572E+02 7.91794E+00 1.63776E+03 7.94237E+00 1.12456E+01
 -1      3856 5.34459E+03 4.52143E+02 7.02111E+00 1.65975E+03 1.06852E+01 1.11532E+01
 -1      3857 5.01464E+03 4.15537E+02 2.04688E+00 1.57477E+03 1.28070E+01 9.26947E+00
 -1      3858 3.00188E+03 2.89116E+02-6.84311E+00 1.14288E+03 1.34580E+01 2.40488E+00
 -1      3859-4.92572E+03-3.50851E+02 1.08847E+01-1.18825E+03 1.26903E+01 7.59763E+00
 -1      3860-3.36706E+03-2.26779E+02-5.00165E+00-6.52289E+02 1.29583E+01 7.44616E-02
 -1      3861-2.72679E+03-2.08045E+02-2.16634E+01-4.59446E+02 9.71106E+00 2.46519E+00
 -1      3862 4.90389E+03 4.37905E+02 9.39927E+00 1.58755E+03-8.91571E+00-6.44332E+00
 -1      3863 2.98204E+03 2.99369E+02-6.36256E+00 1.14751E+03-1.29333E+01-2.89928E+00
 -1      3864 2.24078E+03 2.06193E+02-2.20137E+01 9.41062E+02-8.44204E+00-2.61814E+00
 -1      3865-5.21641E+03-3.58144E+02 4.08374E+00-1.26007E+03 1.34080E+01 5.01783E+00
 -1      3866-3.26528E+03-2.21691E+02-5.22124E+00-6.59618E+02 1.09344E+01-8.23764E-01
 -1      3867 5.22307E+03 4.76955E+02 2.35432E+00 1.66758E+03-1.11993E+01-1.31142E+01
 -1      3868 5.06958E+03 4.04817E+02 7.92280E+00 1.56967E+03-1.38767E+01-7.46687E+00
 -1      3869-3.41226E+03-4.62313E+02 7.42664E+00-1.21389E+03 7.84559E+00 6.99773E+00
 -1      3870-2.34641E+03-2.37898E+02-1.49912E+00-6.77446E+02 7.52973E+00 3.12043E+00
 -1      3871-1.90178E+03-1.78851E+02-1.33578E+01-4.83835E+02 1.02595E+01 3.80078E+00
 -1      3872-3.46183E+03-4.84135E+02 2.93289E+00-1.26353E+03 5.34691E+00 6.07706E+00
 -1      3873-3.60162E+03-4.82945E+02 3.80851E-01-1.28035E+03 9.49955E+00 4.10380E+00
 -1      3874-2.23907E+03-2.23665E+02-1.43460E+00-6.51152E+02 5.63958E+00 8.52452E-01
 -1      3875-3.27945E+03-4.71322E+02 6.76328E+00-1.19506E+03 8.61958E+00 6.66822E+00
 -1      3876-5.05614E+03-3.73806E+02 6.65806E+00-1.28650E+03 7.79401E+00 5.54956E+00
 -1      3877-4.77310E+03-3.75696E+02 9.45409E+00-1.21135E+03 1.33861E+01 7.32916E+00
 -1      3878 3.31491E+03 5.67554E+02 2.51229E+00 1.44623E+03 7.74738E+00 4.56833E+00
 -1      3879 1.88257E+03 4.16221E+02-5.66440E+00 1.00918E+03 6.32360E+00 2.54202E+00
 -1      3880 3.88360E+03 6.55770E+02 6.37095E+00 1.63985E+03 7.72300E+00 9.97473E+00
 -1      3881 3.51198E+03 6.12668E+02-1.40040E+00 1.52816E+03 1.08481E+01 6.59469E+00
 -1      3882 2.10768E+03 4.69492E+02-2.60032E+00 1.09846E+03 1.02576E+01 3.68798E+00
 -1      3883 1.57066E+03 3.78059E+02-2.59711E+00 9.02338E+02 3.97605E+00 4.36472E+00
 -1      3884-4.08026E+03-4.66082E+02 2.07730E+00-1.32296E+03-9.43524E+00-5.77980E+00
 -1      3885-3.76211E+03-4.58705E+02 6.49006E+00-1.24621E+03-1.17813E+01-4.69497E+00
 -1      3886-1.81134E+03-1.50728E+02-1.34820E+01 2.86941E+01-8.51100E+00 6.11050E-01
 -1      3887-8.55053E+02 4.49230E+01 1.17015E-01-9.84180E+01-2.92545E+00-2.43698E-01
 -1      3888-7.99043E+02 3.94838E+01-3.01395E+00-8.47038E+01-1.75236E+00-4.71122E-01
 -1      3889-3.97244E+03-4.65580E+02 1.40615E+00-1.31544E+03-6.82081E+00-6.40447E+00
 -1      3890-2.56761E+03-2.30457E+02-3.04874E+00-6.80147E+02-8.08238E+00-1.31078E-01
 -1      3891 4.28176E+03 6.05491E+02 6.44624E+00 1.67401E+03-8.91956E+00-1.10812E+01
 -1      3892 3.89165E+03 5.82426E+02 1.55217E+00 1.57687E+03-9.32218E+00-8.17806E+00
 -1      3893 3.61122E+03 6.69621E+02 6.77188E+00 1.59796E+03 9.03870E+00 1.01774E+01
 -1      3894 3.73046E+03 6.58898E+02 6.96742E+00 1.61541E+03 8.96383E+00 1.09163E+01
 -1      3895 3.37263E+03 6.24350E+02 1.80082E-01 1.50730E+03 9.53429E+00 7.36476E+00
 -1      3896 2.00969E+03 4.84233E+02-4.12873E+00 1.08318E+03 8.57326E+00 2.34423E+00
 -1      3897 5.34221E+03 4.56857E+02 2.62780E+00 1.65789E+03-8.79658E+00-1.21264E+01
 -1      3898 3.06968E+03 2.82797E+02-5.66573E+00 1.14573E+03-1.07125E+01-3.22087E+00
 -1      3899-8.77262E+02-1.07730E+01 2.03457E+00-2.16690E+02 4.76855E+00-2.57419E+00
 -1      3900-1.47431E+03-2.69056E+02 7.22473E-01-6.27988E+02-1.02659E+00 3.67383E-02
 -1      3901-5.14946E+02 1.30023E+02-2.62645E+00 1.16737E+01-1.75950E+00 2.38578E+00
 -1      3902 1.41646E+03 5.20143E+02 2.77369E+00 8.81471E+02-9.97442E-01-5.23929E-01
 -1      3903-1.90028E+02 1.87373E+02 2.52481E+00 1.56956E+02 7.91356E-01 1.43123E+00
 -1      3904 1.84316E+02 3.19554E+02 2.08399E+00 3.75583E+02 1.63895E+00 4.46167E-01
 -1      3905-1.90665E+03-1.44992E+02-8.37281E+00 7.39113E+01-8.21879E+00-9.62653E-01
 -1      3906-2.68288E+03-4.65294E+02 3.81558E+00-1.10616E+03 6.44995E+00 4.32966E+00
 -1      3907-2.77687E+03-4.73471E+02 6.63356E+00-1.12856E+03 5.45224E+00 7.39383E+00
 -1      3908-1.67279E+03-1.59893E+02-1.95584E+00-5.01487E+02 4.79810E+00 2.93213E+00
 -1      3909-2.47055E+03-4.03965E+02 7.02770E+00-9.73692E+02 8.50939E+00 5.51707E+00
 -1      3910-1.60236E+03-1.54763E+02-3.36496E+00-4.86465E+02 3.52503E+00 3.07638E+00
 -1      3911 2.07787E+03 6.04646E+02 2.87910E+00 1.14776E+03 7.65376E+00 8.46542E+00
 -1      3912 2.23706E+03 6.18415E+02-3.16932E-02 1.20187E+03 6.62599E+00 7.75590E+00
 -1      3913-1.69047E+03-1.31802E+02-1.65805E+01 5.41892E+01 9.29026E+00-1.72965E+00
 -1      3914-3.40946E+03-2.11948E+02-1.99178E+01-3.14819E+02 1.70258E+01 3.23698E+00
 -1      3915 2.83137E+03 6.20556E+02 1.38617E+00 1.37356E+03 6.37991E+00 8.92152E+00
 -1      3916 2.93333E+03 6.50502E+02 3.19160E+00 1.42366E+03 8.84533E+00 8.39042E+00
 -1      3917-7.55922E+01 1.21964E+02-1.35076E+01 2.69757E+02-9.38674E-01 3.30970E-01
 -1      3918-9.67164E+02 9.73969E+00-9.66883E+00-6.00468E+01 3.46298E+00-1.33784E+00
 -1      3919 1.15572E+03 4.87233E+02-3.67085E+00 8.18582E+02 4.93126E+00 1.40633E+00
 -1      3920 1.30446E+03 5.03300E+02-1.07071E+00 8.73053E+02 3.64144E+00 5.00971E+00
 -1      3921-3.09970E+02 7.50461E+01-3.42589E+00 1.67412E+02-6.46622E-01-1.93436E+00
 -1      3922 5.66466E+02 2.43035E+02-2.07097E+00 5.33421E+02-5.72115E-01-1.07185E+00
 -1      3923 1.64119E+03 4.81723E+02-3.42363E-01 9.77531E+02 4.43993E+00 2.64895E+00
 -1      3924 1.75525E+03 5.15039E+02-2.18763E+00 1.02906E+03 7.89665E+00 4.48836E+00
 -1      3925 4.15607E+03 6.22349E+02 7.34505E+00 1.66605E+03-8.89368E+00-1.05662E+01
 -1      3926 2.32269E+03 4.37097E+02-4.41396E+00 1.13189E+03-7.37269E+00-1.20931E+00
 -1      3927-1.81691E+03-1.53670E+02-5.67992E+00-4.35365E+02-6.12814E+00 5.05215E-01
 -1      3928-3.20077E+03-4.24936E+02 2.91094E+00-1.09769E+03 4.23399E+00-3.22443E-01
 -1      3929-5.70284E+03-2.31417E+02 1.20667E+01-8.00036E+02 6.45738E+00 1.00154E+00
 -1      3930-7.52593E+02 6.10985E+01-6.58968E+00-6.44572E+01 1.10024E+00-1.90483E+00
 -1      3931-1.35764E+03-1.15803E+02-3.97483E+00-4.00470E+02 5.66170E+00 2.07472E+00
 -1      3932 1.47644E+03 3.42693E+02-1.54360E+01 8.49721E+02 3.51826E+00 2.24385E-01
 -1      3933 3.23363E+03 5.68768E+02 4.74759E+00 1.43063E+03 2.46561E+00 6.10932E-01
 -1      3934 8.00579E+03-1.00230E+02 3.62471E+01 5.68698E+02-2.91498E+01-2.61965E+01
 -1      3935 6.93918E+03-8.16630E+01 2.86996E+01 7.09544E+02-3.54523E+01-3.22025E+01
 -1      3936 3.24281E+02 2.41852E+02-5.07461E+00 3.01559E+02-4.12059E+00-7.92844E+00
 -1      3937 3.40238E+02 2.60636E+02-1.96590E+00 3.25156E+02-2.35261E+00-6.62748E+00
 -1      3938 8.01764E+03-4.12879E+01 3.10768E+01 7.19617E+02-1.69830E+01-2.37755E+01
 -1      3939 3.99621E+03-1.81539E+02-1.07142E+01 5.63378E+02-4.65624E+01-3.29780E+01
 -1      3940 6.92291E+03-4.39803E+01 4.40790E+00 8.26303E+02 3.09469E+01 2.90511E+01
 -1      3941 7.00478E+03-4.63142E+00 6.26323E+00 9.20402E+02 2.14352E+01 2.10648E+01
 -1      3942 4.02989E+02 2.67512E+02-1.88879E+00 3.49715E+02-4.96932E+00-7.74058E+00
 -1      3943 1.07679E+02 2.97120E+02-1.17057E+00 2.91259E+02-2.84258E+00-4.66723E+00
 -1      3944-4.85777E+03-3.66056E+02 9.32457E+00-1.20286E+03 8.72817E+00 3.26547E+00
 -1      3945-4.61248E+03-3.34047E+02 1.03673E+01-1.06368E+03 4.05666E+00-2.53050E-01
 -1      3946-2.75328E+03-2.01946E+02-1.98811E+01-4.61709E+02-2.99288E+00 3.33051E-01
 -1      3947-4.92255E+03-3.60607E+02 9.25933E+00-1.19788E+03-4.91117E+00-2.64914E+00
 -1      3948-3.03263E+03-2.25072E+02-1.34898E+01-5.87350E+02 3.59341E+00-4.40112E-03
 -1      3949 1.13630E+03 4.65832E+02 1.10774E+00 7.38996E+02-5.00266E+00-6.90463E+00
 -1      3950-1.16548E+03-2.19092E+02 1.85814E+00-5.15294E+02-3.52837E+00-6.63924E+00
 -1      3951-4.69423E+03-3.90437E+02 1.15598E+01-1.22420E+03 6.56715E+00 1.06676E+00
 -1      3952-2.56292E+03-1.96876E+02-1.38254E+01-4.81294E+02 2.92688E-01-1.69662E+00
 -1      3953-4.28726E+03-3.60678E+02 3.14352E+00-1.11188E+03-4.91497E+00-2.00103E+00
 -1      3954-4.75599E+03-3.84958E+02 1.19770E+01-1.21954E+03-4.44272E+00-3.63349E+00
 -1      3955 4.97815E+03 4.18789E+02 7.92232E+00 1.57603E+03-8.87517E+00-4.68461E+00
 -1      3956 4.40669E+03 4.05423E+02 6.03751E+00 1.47592E+03-2.92440E+00-8.68239E-02
 -1      3957 2.21544E+03 2.20012E+02-1.95930E+01 9.36536E+02 3.00971E+00 7.13372E-02
 -1      3958 4.90840E+03 4.29815E+02 5.57065E+00 1.57888E+03 4.86379E+00 3.23609E+00
 -1      3959 2.74421E+03 2.36864E+02-1.45922E+01 1.05075E+03-3.53299E+00 1.53981E-01
 -1      3960 8.68267E+02 8.28198E+01-6.95262E+00 5.58628E+02 1.19969E+00-1.31195E+00
 -1      3961-6.06938E+02-4.94143E+01-9.07443E+00 1.28838E+02 2.00242E+00-2.01835E-01
 -1      3962-1.67052E+03-8.38082E+01-2.07793E+00-1.42472E+02-5.34971E+00 5.73424E-01
 -1      3963 1.22666E+03 1.48429E+02-7.53659E+00 6.75512E+02 5.29890E+00 1.86800E-01
 -1      3964-2.46166E+02 4.84731E+00-1.46407E+01 2.49252E+02-6.03501E-01-1.93705E-01
 -1      3965-1.66175E+03-7.70270E+01-7.66466E+00-1.46778E+02-5.88635E+00 2.05585E+00
 -1      3966-1.20752E+03-4.98874E+01-5.44924E+00-3.78221E+01-2.20121E+00 2.42742E+00
 -1      3967 1.22236E+03 1.60957E+02-2.13358E+00 6.72386E+02 4.12313E+00 1.14638E+00
 -1      3968 2.07167E+02 4.38414E+01-7.33677E+00 3.52159E+02-3.21661E+00-6.46703E-01
 -1      3969 5.16432E+03 3.85252E+02 1.06547E+01 1.55397E+03-5.68258E+00-1.44349E+00
 -1      3970 2.40331E+03 1.73312E+02-1.74172E+01 9.30422E+02-3.49298E-01 1.74604E+00
 -1      3971 4.76459E+03 3.35665E+02 2.59185E+00 1.43932E+03 5.73674E+00 2.43384E+00
 -1      3972 5.10012E+03 3.98585E+02 1.14447E+01 1.55952E+03 4.41712E+00 3.33423E+00
 -1      3973 4.08885E+03-1.26814E+02-1.91201E+01 6.62664E+02 3.20458E+01 1.66267E+01
 -1      3974 4.18246E+03-8.32217E+01-1.34944E+01 7.37521E+02 2.18823E+01 1.02868E+01
 -1      3975 7.39538E+02 1.36452E+02-8.77584E+00 5.53564E+02-2.77491E+00-4.73587E-01
 -1      3976-6.37291E+02-1.20686E+01-1.51142E+01 1.25201E+02 5.68759E+00-1.59328E-01
 -1      3977-1.64779E+03-7.79952E+01-8.58226E+00-1.54046E+02 5.95335E+00-1.44751E+00
 -1      3978 1.23671E+03 1.50185E+02-3.47627E+00 6.68120E+02-6.37377E+00-3.30674E-01
 -1      3979-1.69687E+02 7.97836E+00-8.24290E+00 2.47097E+02 5.38051E-01 2.83619E-01
 -1      3980 2.72107E+03 6.60606E+02 6.25952E+00 1.36821E+03 7.24331E+00 1.11716E+00
 -1      3981 7.26935E+02 3.54485E+02 2.74376E-02 5.29003E+02-1.76558E+00 4.24251E+00
 -1      3982 5.04089E+01 3.10051E+02 4.80812E+00 2.87912E+02 8.88318E-01 1.34511E+00
 -1      3983-1.30326E+02 2.28149E+02-1.25600E+00 1.74497E+02 2.10284E+00-3.09686E-01
 -1      3984-1.65725E+03-8.66603E+01-3.90773E+00-1.49663E+02 6.95167E+00-1.28553E+00
 -1      3985-1.35032E+03-6.17941E+01-9.91930E+00-2.46163E+01 4.50625E+00-1.11556E+00
 -1      3986 1.23112E+03 1.36624E+02-8.37634E+00 6.67833E+02-4.94609E+00-6.43325E-01
 -1      3987 1.64846E+02 2.50587E+01-1.67144E+01 3.63098E+02-4.71238E+00 1.19361E+00
 -1      3988 5.11094E+02 3.02980E+02 2.72352E+00 4.11770E+02-4.08248E+00-8.12847E+00
 -1      3989 7.81618E+03-2.05606E+01 1.38145E+01 8.43895E+02-2.21866E+01-3.09734E+01
 -1      3990-7.32010E+02-9.29855E+01 6.78775E+00-2.89333E+02 4.98336E+00 6.70280E+00
 -1      3991 6.46659E+03 8.62700E+01 8.54026E+00 1.16120E+03 1.64133E+00 1.72389E+00
 -1      3992-6.28527E+03-2.21641E+02 8.76725E+00-9.41844E+02 1.16937E+01 4.70004E+00
 -1      3993-5.62665E+03-2.35532E+02 6.92912E+00-8.26868E+02 1.53098E+01 6.88095E+00
 -1      3994-6.20409E+03-2.29256E+02 6.75124E+00-9.98328E+02 1.26984E+01 3.01324E+00
 -1      3995-3.71819E+03-1.85954E+02-1.13931E+01-3.64432E+02 1.84356E+01-4.50237E-01
 -1      3996-1.09339E+03-1.91500E+02 2.24423E+00-4.74660E+02 6.39137E+00 6.35653E+00
 -1      3997-2.23105E+03-3.95718E+02 5.09506E+00-9.16328E+02 3.48571E+00 1.90213E+00
 -1      3998-3.03058E+02 1.56078E+02 3.33452E+00 4.99487E+01-5.80482E+00-1.79748E+00
 -1      3999 1.50648E+03-3.49812E+01-2.51595E+00 5.75489E+02 7.71339E+00 1.75657E+00
 -1      4000-2.34723E+03-4.35647E+02 4.83003E-01-1.00201E+03 5.38950E+00 5.98592E+00
 -1      4001-2.17799E+03-3.89620E+02 3.00512E+00-9.00766E+02 5.97229E+00 7.08026E+00
 -1      4002-1.47932E+03-1.36183E+02-2.82589E+00-4.56958E+02 4.51832E+00 7.48361E-01
 -1      4003-1.53986E+03-1.55154E+02 2.20339E-01-5.00536E+02 2.80094E+00 3.74852E+00
 -1      4004-2.21886E+03-4.17771E+02 1.03120E+00-9.46478E+02 5.59349E+00 5.99228E+00
 -1      4005-6.87021E+03-1.60660E+02 4.59703E+00-6.83278E+02 1.56326E+01 1.14214E+01
 -1      4006-1.69716E+03-1.57586E+02-1.48639E+01 2.68537E+01 1.43188E+00 6.43694E+00
 -1      4007 7.95080E+02-2.33533E+02-1.84749E+02 2.76090E+02-1.25919E+01-2.16515E+01
 -1      4008-7.04061E+02 7.23763E+01 1.60024E-01-8.05195E+01 1.85343E+00-8.12395E-01
 -1      4009-1.16698E+03-8.67792E+01-3.11641E+00-3.45810E+02 2.71056E+00 2.38307E+00
 -1      4010-6.68133E+02 8.13326E+01-3.00743E+00-5.43326E+01 9.16726E-01-1.17361E+00
 -1      4011 3.74673E+02 3.51019E+02-2.42300E+00 4.70669E+02-1.41723E+00 1.31848E-01
 -1      4012-9.52482E+01 2.05433E+02-4.41333E+00 2.12701E+02-2.43068E+00 2.16005E+00
 -1      4013-1.39058E+02 1.98856E+02 1.69327E+00 1.84858E+02 1.66667E+00 1.12179E-01
 -1      4014-2.27417E+02 5.09130E+01 4.59501E+00-1.60327E+01-5.58611E+00-6.55705E+00
 -1      4015-2.91114E+02 4.86583E+01 1.93262E+00-3.85865E+01-4.27060E+00-5.95792E+00
 -1      4016-4.80558E+02 1.19121E+02 4.40469E+00 4.66927E+00-3.91483E+00-4.97345E+00
 -1      4017 1.79462E+02 2.91099E+02-6.94721E+00 3.55686E+02-1.38024E+00-5.70689E+00
 -1      4018-7.20149E+02 4.63403E+01 3.01728E+00-7.61207E+01 2.98794E+00 5.73034E+00
 -1      4019 5.39469E+02 2.09713E+02-1.43147E+01 5.08084E+02 1.04535E+00 7.38150E+00
 -1      4020-9.44721E+02-5.74081E+00-3.49383E+00-7.40681E+01 3.21969E+00 5.72121E+00
 -1      4021-2.43992E+03-4.51633E+02 3.91293E+00-1.03278E+03 4.61869E+00 6.87162E+00
 -1      4022-1.56416E+03-1.52244E+02-2.01416E+00-4.84040E+02 4.27633E+00 1.80753E+00
 -1      4023-5.87684E+03-2.47511E+02 8.38782E+00-9.53517E+02 1.54008E+01 5.52070E+00
 -1      4024-4.00393E+03-1.86190E+02-6.24768E+00-4.72445E+02 1.44743E+01 1.50090E+00
 -1      4025-1.87203E+03-3.51053E+02 7.10064E+00-8.01816E+02 4.88972E-01 1.33853E+00
 -1      4026-1.88441E+03-3.71650E+02 7.07055E-01-8.27738E+02 3.56654E+00 1.94132E+00
 -1      4027-1.89452E+03-3.70867E+02 2.33005E+00-8.31295E+02-2.56767E+00-2.67954E+00
 -1      4028-1.18768E+03-1.05334E+02-1.81269E+00-3.78141E+02 2.10340E+00 3.61377E-01
 -1      4029-1.16766E+03-9.55636E+01-2.84542E+00-3.52488E+02-1.05408E+00 7.69206E-01
 -1      4030-2.55763E+03-4.57791E+02 4.33439E+00-1.06973E+03 6.94285E+00 7.62264E+00
 -1      4031-2.29729E+03-3.97927E+02 1.98419E+00-9.35257E+02 5.75577E+00 5.99994E+00
 -1      4032-3.33490E+02 1.87368E+02-3.39572E+00 7.77666E+01-1.20232E+00 7.29867E-01
 -1      4033-2.91061E+03-4.77494E+02 2.18887E+00-1.16243E+03 8.19158E+00 4.58862E+00
 -1      4034-7.16228E+03-1.21227E+02 1.71444E+01-4.93849E+02-1.66420E+01-2.06587E+01
 -1      4035-1.76054E+03-3.50702E+02 4.66894E+00-7.81473E+02 1.98802E+00 2.73520E+00
 -1      4036-9.98907E+02-4.77151E+01-1.67383E+00-2.80075E+02 7.85653E-01-1.43447E+00
 -1      4037-1.58946E+03-2.91390E+02-3.78547E-01-6.76257E+02-1.51561E-02-6.11441E-01
 -1      4038-1.77957E+03-3.53997E+02 4.89956E+00-7.86450E+02-1.44552E+00-3.52571E+00
 -1      4039-1.64614E+03-1.21239E+02-1.63006E+01-1.65586E+02 5.88053E+00-8.13340E-02
 -1      4040-1.32918E+03-8.80807E+01-1.42814E+01-4.95983E+01 3.45159E-01 1.53460E+00
 -1      4041-1.68027E+03-1.10699E+02-1.46533E+01-1.63267E+02-6.08924E+00-1.01558E-01
 -1      4042 1.23906E+03 1.04807E+02-1.75226E+01 6.54255E+02-5.60764E+00 6.53180E-01
 -1      4043 7.55112E+02 1.00142E+02-1.33873E+01 5.31212E+02 5.70289E-01-1.25888E+00
 -1      4044 1.21042E+03 1.25336E+02-1.49648E+01 6.54997E+02 5.29635E+00 2.53853E-01
 -1      4045-1.23392E+03-9.44857E+01-1.73150E+01-6.35402E+01-5.77232E+00-3.22925E+00
 -1      4046 8.41852E+02 4.79149E+01-1.99087E+01 5.29713E+02 6.00996E+00 3.04898E+00
 -1      4047 8.64001E+02 4.21585E+02-1.50973E+00 6.70876E+02-5.32959E-01 9.28652E-01
 -1      4048 1.91677E+03 5.92353E+02 4.92876E+00 1.08769E+03 2.32970E+00 2.28271E+00
 -1      4049 1.78358E+03 5.66135E+02 1.36191E-01 1.03031E+03-2.07839E+00-1.57275E+00
 -1      4050 8.39507E+02 4.28652E+02 1.64107E+00 6.69853E+02-2.67386E+00-4.15540E+00
 -1      4051 1.88373E+03 5.88310E+02 3.39225E+00 1.07598E+03-1.96891E+00-3.71088E+00
 -1      4052 2.83535E+03 6.87776E+02 2.41657E+00 1.41973E+03-6.72205E+00-9.84493E+00
 -1      4053 2.60118E+03 6.74031E+02 2.74607E+00 1.35546E+03 6.84597E+00 9.98619E+00
 -1      4054-1.29612E+03-3.60737E+01-5.58759E+00-1.74660E+02-4.30503E+00 1.31065E+00
 -1      4055-5.20636E+02 5.06791E+01-7.25489E+00 9.71799E+01-6.59949E+00-4.01674E+00
 -1      4056 5.68282E+02 2.35254E+02-7.18432E+00 5.35027E+02 1.54175E+00-2.34921E+00
 -1      4057 9.50222E+02 2.66598E+02-1.77218E+00 6.60400E+02 5.13509E+00-7.99121E-02
 -1      4058 1.71514E+03 3.47811E+02-1.45923E+01 9.27112E+02 5.38166E+00 2.30403E+00
 -1      4059 1.70591E+03 3.48307E+02-1.30788E+01 9.15274E+02-2.07539E+00 2.38132E-01
 -1      4060 3.79173E+03 5.87371E+02 3.89749E+00 1.56184E+03-4.42761E+00-4.28758E+00
 -1      4061 3.39679E+03 5.57251E+02 6.05953E+00 1.45028E+03 2.85706E+00-2.53230E-01
 -1      4062 3.83420E+03 5.85459E+02 4.26047E+00 1.56910E+03 6.37582E+00 3.05841E+00
 -1      4063 7.01307E+03 1.38445E+02 1.25250E+01 1.26003E+03-1.44900E+01-1.33541E+01
 -1      4064-6.95729E+02 7.55481E+01-2.21184E+00-7.92173E+01 1.35267E+00-7.75134E-01
 -1      4065 3.74305E+02 3.53452E+02 2.30163E+00 4.66921E+02-1.94831E+00-7.37052E-01
 -1      4066 1.81523E+02 3.15066E+02-3.53823E+00 3.75125E+02-1.13300E-01 1.88089E+00
 -1      4067-3.16823E+02 1.49983E+02-6.24101E+00 9.36918E+01 3.41608E+00-1.88461E+00
 -1      4068-2.18135E+02 1.68241E+02 2.68827E+00 1.55124E+02-1.57922E+00 4.08469E-01
 -1      4069 2.62800E+02 3.16116E+02 2.73130E+00 4.15905E+02 1.42495E-01-1.01579E+00
 -1      4070-2.41578E+03-4.05745E+02-1.98883E+00-9.69979E+02 6.33431E+00 6.55224E+00
 -1      4071 3.87254E+02 3.51194E+02-2.65222E+00 4.74554E+02 2.07904E+00 3.01723E-01
 -1      4072-1.11724E+01 2.27006E+02-2.31687E+00 2.55166E+02 2.87766E+00-9.43864E-01
 -1      4073-6.01123E+02 1.03597E+02-3.17014E+00-1.45937E+01-8.08488E-01 9.45242E-01
 -1      4074-7.03656E+02 7.01116E+01 1.95976E+00-7.82121E+01-2.34066E+00-3.46428E-02
 -1      4075-1.11746E+03-7.37798E+01-9.18390E+00-3.11713E+02-4.22742E+00-3.35693E+00
 -1      4076-1.23164E+03-1.01879E+02-5.40666E-02-3.96723E+02-3.42560E+00-3.04777E+00
 -1      4077-1.73182E+03-3.48358E+02-2.69448E+00-7.64741E+02-7.57346E+00-8.46160E+00
 -1      4078-1.79209E+03-3.47631E+02-8.08277E-01-7.80852E+02-4.78290E+00-5.08097E+00
 -1      4079 1.93814E+03 5.94846E+02-2.17251E+00 1.09933E+03-7.57515E+00-7.79146E+00
 -1      4080 1.11025E+03 4.98094E+02-1.34753E+00 8.00619E+02-4.08641E+00-4.25047E+00
 -1      4081 1.87458E+03 5.96441E+02-1.28173E+00 1.08184E+03-4.98693E+00-7.10345E+00
 -1      4082-6.24791E+02-5.99792E+01 1.66595E+00-2.25890E+02-6.09982E+00-7.62049E+00
 -1      4083-5.75539E+02-5.28004E+01 9.73185E-01-2.08369E+02-3.54330E+00-7.52821E+00
 -1      4084-5.04265E+02 9.73148E+01-1.24811E+00-5.12945E+01-3.24600E+00-1.98525E+00
 -1      4085-4.65828E+02 1.06242E+02 1.13134E+00-3.70740E+01-8.87473E-01-5.06781E+00
 -1      4086-1.83679E+03-3.62211E+02 1.52237E+00-8.08605E+02-6.88312E+00-8.43121E+00
 -1      4087-1.29696E+03-1.13133E+02-6.09931E-01-4.17778E+02-3.43139E+00-1.60188E+00
 -1      4088 1.82425E+03 5.82955E+02 7.83913E-01 1.05142E+03-6.31578E+00-9.27962E+00
 -1      4089 1.04573E+03 4.94640E+02-4.16915E-01 7.75728E+02-2.94068E+00-2.66029E+00
 -1      4090 2.25807E+03 6.22639E+02 2.85957E+00 1.21768E+03-4.51661E+00-6.04165E+00
 -1      4091 9.06510E+02 4.18171E+02 1.08800E+00 6.35472E+02-4.37723E+00-6.94903E+00
 -1      4092-9.71060E+02-1.45678E+02 6.74299E-01-3.99308E+02-4.09525E+00-5.90958E+00
 -1      4093 2.61771E+03 6.28201E+02-4.96768E+00 1.32536E+03-5.33492E+00-6.03889E+00
 -1      4094 6.23576E+02 3.44105E+02 5.16756E+00 4.79988E+02-4.04584E+00-5.03770E+00
 -1      4095-6.35278E+02-6.67534E+01 4.13657E-01-2.38735E+02-4.09194E+00-5.93331E+00
 -1      4096-6.88603E+02-6.96820E+01 3.25320E-03-2.48305E+02-3.30359E+00-6.51246E+00
 -1      4097 6.18228E+03 1.24835E+02-1.13864E+00 1.21336E+03-1.33167E+01-8.84790E+00
 -1      4098 3.76595E+03 5.95646E+02 8.08093E+00 1.56220E+03 9.12769E+00 1.09271E+01
 -1      4099 2.28534E+03 4.44636E+02-3.16021E+00 1.12728E+03 8.53592E+00 1.96595E+00
 -1      4100 3.84901E+03 5.98071E+02 2.33296E+00 1.58164E+03 8.26349E+00 7.87170E+00
 -1      4101-4.82264E+03-3.46163E+02 1.02652E+01-1.11704E+03-2.79856E+00-2.51728E-01
 -1      4102-2.96655E+03-2.12477E+02-1.59362E+01-5.09136E+02-1.21811E+01-1.99146E+00
 -1      4103 3.91759E+03 5.77869E+02 4.43361E+00 1.57821E+03 1.02730E+01 9.53550E+00
 -1      4104 2.37494E+03 4.37574E+02-3.41257E+00 1.14373E+03 7.96485E+00 2.35966E+00
 -1      4105-5.80587E+03-2.14873E+02-5.29679E+00-8.16034E+02-1.38703E+01-9.41129E-01
 -1      4106 6.68773E+03 1.46563E+01-1.02073E+01 9.82957E+02-1.60116E+01-1.26483E+01
 -1      4107-5.46589E+03-2.59505E+02 1.21092E+01-9.67130E+02 1.28015E+01 2.03925E-01
 -1      4108-3.37114E+03-2.10131E+02-1.35604E+01-4.07324E+02 9.54010E+00 4.27239E+00
 -1      4109-6.66777E+02 8.06752E+01 1.00844E+00-5.17761E+01 1.84876E+00 1.28172E+00
 -1      4110-1.26975E+03-1.05978E+02 1.96086E-01-3.82881E+02 1.54812E+00 4.34104E+00
 -1      4111-1.27874E+03-2.33848E+02 1.94792E+00-5.57361E+02-3.90385E+00 1.02583E+00
 -1      4112-8.40929E+02-1.17760E+01 2.87526E+00-2.21249E+02-1.22013E+00-5.76207E+00
 -1      4113-4.64664E+02 1.39483E+02 5.72403E-01 1.74198E+01-1.02822E+00-2.12962E+00
 -1      4114 1.23702E+03 4.84312E+02 1.83382E+00 7.92640E+02 1.83000E+00-1.71222E+00
 -1      4115 6.00422E+02 4.02116E+02-3.73617E+00 5.51150E+02-5.71980E+00-3.11945E+00
 -1      4116 1.56582E+02 3.19664E+02 3.33049E-01 3.53107E+02-2.32037E+00-1.73082E+00
 -1      4117 1.88757E+03 5.83115E+02 9.99904E-01 1.07676E+03 3.48793E+00 9.86509E-01
 -1      4118 9.43193E+02 4.42403E+02 8.26364E-01 7.16592E+02 3.16819E+00 4.61386E+00
 -1      4119-1.99622E+03-3.67203E+02 3.07046E+00-8.45612E+02 3.32944E+00 1.75979E+00
 -1      4120-1.06782E+03-5.31189E+01-2.24054E+00-2.85535E+02 2.44926E+00 1.05122E+00
 -1      4121 3.49548E+02 3.31491E+02-5.20131E-01 4.53720E+02 8.00277E-01 1.18810E+00
 -1      4122 4.58895E+03 4.27835E+02 7.56194E+00 1.53060E+03 1.72441E+00 9.88274E-01
 -1      4123 2.39815E+03 2.45990E+02-1.54408E+01 9.97673E+02 9.82701E+00 1.66849E+00
 -1      4124-4.42734E+03-3.75405E+02 7.38160E+00-1.17569E+03 9.91371E+00 3.40848E-01
 -1      4125-2.73573E+03-2.15151E+02-1.10809E+01-5.36657E+02 8.31852E+00 3.09845E+00
 -1      4126-6.86273E+02 4.69825E+01-3.44521E+00-9.01972E+01 1.01058E+00 1.61844E+00
 -1      4127-6.41101E+02 6.07850E+01-3.67719E+00-6.95746E+01-3.27968E-01 2.70783E+00
 -1      4128 5.02053E+03 3.47183E+02 6.66595E+00 1.48328E+03-1.04144E+01-1.20012E+00
 -1      4129 2.61935E+03 1.79432E+02-1.40777E+01 9.84375E+02-8.87906E+00-2.68267E+00
 -1      4130-1.53268E+03-7.55099E+01-4.20687E+00-7.48410E+01-7.87671E+00 8.65212E-01
 -1      4131 9.46895E+02 1.58718E+02-3.10038E+00 6.11326E+02 5.90229E+00 5.26095E-01
 -1      4132-1.62520E+03-3.08119E+02 2.86879E+00-7.11752E+02 5.18023E+00 6.70228E-01
 -1      4133-1.05495E+03-6.29171E+01-1.55483E-01-3.08243E+02 1.63989E+00 3.33936E+00
 -1      4134-5.66573E+02 1.07708E+02-1.91607E+00-1.85479E+01-2.04664E+00 1.34251E+00
 -1      4135-9.55606E+02 1.08227E+01-2.14434E+00-1.04768E+02 2.54562E+00 1.46290E+00
 -1      4136-1.87678E+03-1.87363E+02-2.41725E+00-5.23985E+02 3.76719E+00 5.07707E+00
 -1      4137 5.86243E+02 2.86695E+02-3.92411E+00 5.49608E+02 2.70311E+00 2.57517E+00
 -1      4138 1.58497E+03 4.18609E+02-9.33918E+00 9.23641E+02 9.00604E+00 4.00966E+00
 -1      4139-6.57770E+03-1.54013E+02-3.34709E+00-4.09915E+02 4.86916E+00 1.91564E+01
 -1      4140-3.00969E+03-4.41290E+02 5.17505E+00-1.11423E+03 6.08881E+00-1.58400E+00
 -1      4141 3.04851E+03 6.14439E+02 5.27963E+00 1.42108E+03 1.26455E+00 2.42502E-01
 -1      4142 7.68001E+03 2.05974E+01 1.14019E+01 9.36036E+02 1.56470E+01 2.15963E+01
 -1      4143 7.01279E+03-5.54820E+01-2.03068E+00 7.64405E+02 2.86109E+01 2.69331E+01
 -1      4144-1.67613E+03-1.10894E+02-8.86568E+00-3.08114E+01 6.21616E+00 1.32585E+00
 -1      4145-3.95703E+03-4.05665E+02 3.05612E+00-1.18383E+03-7.99351E+00-1.39840E+00
 -1      4146 1.12387E+03 4.70751E+02 1.57629E+00 7.44528E+02-4.44527E+00-7.08439E+00
 -1      4147-1.18239E+03-2.03838E+02-1.53861E-01-5.01964E+02-4.11174E+00-5.67329E+00
 -1      4148-1.52897E+03-2.83709E+02-3.36363E+00-6.60581E+02 3.27527E+00 4.43845E+00
 -1      4149-1.92994E+03-3.80484E+02 6.89983E-01-8.54176E+02 4.87907E+00 5.81368E+00
 -1      4150-1.88575E+03-3.46598E+02 1.36294E+00-7.98589E+02 4.67358E+00 5.38393E+00
 -1      4151-1.81947E+03-3.44273E+02 3.26276E+00-7.82014E+02 7.08368E+00 7.78860E+00
 -1      4152-1.26665E+03-1.00077E+02-1.70798E+00-3.90271E+02 3.80959E+00 3.93858E-01
 -1      4153 1.48564E+03 5.39589E+02 3.78219E+00 9.15448E+02 4.49069E+00 5.60283E+00
 -1      4154 2.36268E+03 6.60100E+02 1.84595E+00 1.26944E+03 6.27982E+00 7.34710E+00
 -1      4155 2.00348E+03 6.05984E+02 5.08677E-01 1.13109E+03 5.49581E+00 7.49976E+00
 -1      4156 5.59145E+03 2.56019E+02 3.01916E+00 1.39722E+03 1.15064E+01 7.68233E+00
 -1      4157-2.87827E+03-4.34207E+02-1.01398E+00-1.08016E+03 6.04303E+00 3.81706E+00
 -1      4158-4.95761E+03-3.11013E+02 2.24650E+00-1.07771E+03-9.55873E+00-1.25292E+00
 -1      4159 4.43739E+03 4.68665E+02 2.12655E+00 1.55298E+03 8.64328E+00 6.69996E+00
 -1      4160-1.07977E+03-1.35058E+01-5.12302E+00-1.09566E+02 6.94518E-01-7.38650E-02
 -1      4161-2.14903E+03-2.03130E+02-4.18667E+00-5.54666E+02-5.31636E+00-5.31423E+00
 -1      4162 3.08049E+03 6.84288E+02 3.55013E+00 1.48311E+03 6.22548E+00 8.88928E+00
 -1      4163 2.90738E+03 6.30890E+02-7.02586E-01 1.40119E+03 7.33158E+00 7.91217E+00
 -1      4164 4.17457E+03 6.27067E+02 4.03929E+00 1.67106E+03 7.63896E+00 9.47811E+00
 -1      4165-1.38296E+03-6.48241E+01-7.79992E+00-1.02301E+02 2.53923E+00-1.73390E-02
 -1      4166 4.08750E+03 5.19730E+02-5.35450E+00 1.54854E+03-8.26169E+00-6.86224E+00
 -1      4167-3.45888E+03-4.36930E+02 7.00125E+00-1.17334E+03-7.56077E+00-1.41166E-01
 -1      4168 3.53500E+03 5.73239E+02 4.12560E+00 1.49886E+03-1.14480E+00-3.17198E+00
 -1      4169 1.83788E+03 3.72178E+02-1.45607E+01 9.69331E+02-8.35115E+00-2.03236E+00
 -1      4170-6.24751E+03-1.67725E+02-7.52123E-01-5.98478E+02-1.36479E+01-5.71927E+00
 -1      4171 1.07942E+03 9.32098E+01-9.27302E+00 6.03145E+02-1.90839E+00-1.69103E+00
 -1      4172 6.87727E+02 2.53989E+02-2.12774E+00 5.77309E+02-4.95209E+00-2.28107E-01
 -1      4173-4.27277E+03-3.83800E+02-5.58117E+00-1.17476E+03 8.67859E+00 1.90886E+00
 -1      4174-5.29544E+03-2.75958E+02-6.46217E+00-1.00075E+03 1.11764E+01 1.67155E+00
 -1      4175 3.39479E+03 6.01234E+02 2.89014E+00 1.49167E+03-7.61218E+00-6.29044E+00
 -1      4176 5.21191E+03 3.26318E+02-6.82986E+00 1.47273E+03-1.10443E+01-7.63130E+00
 -1      4177-3.32456E+03-4.37079E+02-4.63588E+00-1.15141E+03-6.59042E+00-2.26351E+00
 -1      4178 1.19304E+03 4.77078E+02 2.82353E+00 7.70326E+02-3.82969E+00-6.83597E+00
 -1      4179 6.23704E+02 4.25683E+02 3.31156E+00 5.75261E+02-5.01507E+00-1.88823E+00
 -1      4180-8.72891E+02-7.66377E+00-2.47461E+00-2.33501E+02-3.91418E-01-3.67391E+00
 -1      4181-1.94573E+03-3.64472E+02-1.84308E-01-8.28035E+02 5.40733E+00 6.72783E+00
 -1      4182-1.23601E+03-2.25734E+02-2.88386E-01-5.36145E+02-4.92074E+00-5.78142E+00
 -1      4183-1.33081E+03-1.10078E+02-2.10236E+00-4.12908E+02 2.14070E+00 1.98426E+00
 -1      4184-1.09089E+03-6.06712E+01-3.25287E+00-3.28033E+02-3.23202E-01 4.60249E+00
 -1      4185-1.58655E+03-3.01634E+02-1.30421E+00-6.94448E+02 5.72302E+00 7.15238E+00
 -1      4186 1.93923E+03 5.89062E+02-1.60244E+00 1.09817E+03 5.79566E+00 7.53819E+00
 -1      4187 1.09287E+03 4.87742E+02-2.04217E+00 7.92888E+02 2.10653E+00 3.89239E+00
 -1      4188-2.95227E+03-4.43322E+02 8.86051E-01-1.10337E+03 7.84015E+00 4.84015E+00
 -1      4189-1.97635E+03-1.89644E+02-5.20570E+00-5.73893E+02 3.64515E+00 2.24834E+00
 -1      4190-4.87808E+03-3.31544E+02 9.61997E+00-1.10236E+03-1.25175E+01-5.96838E+00
 -1      4191-3.25846E+03-2.06893E+02-5.23738E+00-5.56441E+02-1.61212E+01 1.63102E+00
 -1      4192 2.62082E+03 3.05585E+02-3.51673E+00 1.08979E+03 1.32199E+01 1.10205E+00
 -1      4193 4.52771E+03 4.45390E+02 7.42699E+00 1.54014E+03 1.08607E+01 7.39309E+00
 -1      4194 2.98923E+03 6.21181E+02 5.07897E+00 1.41048E+03 8.23596E+00 7.20163E+00
 -1      4195-5.39796E+03-2.69072E+02 3.03782E+00-9.88046E+02 1.43404E+01 5.17155E+00
 -1      4196-4.36317E+03-3.81034E+02 6.07710E-01-1.18098E+03 1.14013E+01 5.23695E+00
 -1      4197 1.71039E+03 4.72222E+02-1.31501E+00 9.94187E+02 7.72834E+00 1.89283E+00
 -1      4198 2.00738E+03 4.33656E+02-1.12127E+00 1.05260E+03-1.06228E+01-1.47160E+00
 -1      4199-1.92530E+03-3.78419E+02 1.85693E+00-8.51294E+02-4.68510E+00-6.01556E+00
 -1      4200 1.93028E+03 6.16087E+02 1.39239E+00 1.10731E+03-5.53729E+00-7.97963E+00
 -1      4201-1.81682E+03-3.31782E+02 4.29560E+00-7.66436E+02-1.70228E+00-1.56034E+00
 -1      4202-3.40449E+03-4.40534E+02 6.23552E-02-1.17064E+03-9.27196E+00-5.19136E+00
 -1      4203 5.09575E+03 3.36922E+02-1.30631E-02 1.47418E+03-1.29689E+01-6.85450E+00
 -1      4204-2.91071E+03-2.06533E+02-9.13065E+00-6.14277E+02 6.40232E+00 2.90809E+00
 -1      4205 3.01200E+03 2.19887E+02-1.21984E+01 1.06791E+03-7.97420E+00-5.90268E+00
 -1      4206-3.59839E+03-1.85262E+02-1.19997E+01-4.82639E+02 1.06359E+01 3.03726E+00
 -1      4207-2.27600E+03-2.05252E+02-7.57295E+00-6.15134E+02-3.45745E+00-2.68520E+00
 -1      4208 3.48248E+03 5.85826E+02 5.53661E+00 1.49708E+03-8.95972E+00-8.18379E+00
 -1      4209-2.35894E+02-2.68495E+01-1.60676E+01 2.60164E+02 5.31953E+00 5.29996E+00
 -1      4210 1.06635E+03 6.08519E+01-2.14244E+01 5.85099E+02-4.20177E+00-1.78646E+00
 -1      4211-2.57556E+02-7.41042E+01-1.97815E+01 2.77134E+02-6.71050E+00-7.41205E+00
 -1      4212-1.51694E+02 2.24585E+02 4.96649E-02 1.84718E+02 3.32401E+00 4.61084E+00
 -1      4213-4.70998E+02 1.07308E+02-2.22420E+00-1.50112E+00-1.28935E+00-4.48367E+00
 -1      4214 1.91422E+02 3.06781E+02 9.67515E-01 3.48663E+02-3.66868E+00-3.02845E+00
 -1      4215-1.59272E+02 1.85279E+02-3.09711E+00 1.93397E+02-2.09352E+00-2.61149E+00
 -1      4216 2.62078E+02 2.84287E+02-7.29350E+00 3.92529E+02-2.10560E+00-2.78090E+00
 -1      4217-5.75886E+02 8.58474E+01-4.40939E+00-3.08076E+01-5.25658E-01-4.02290E+00
 -1      4218 3.47353E+02 3.04070E+02-5.97601E+00 4.32159E+02 2.92649E+00 1.48925E+00
 -1      4219-6.80453E+02 4.59397E+01-6.32340E+00-7.45763E+01 1.08269E+00 2.39013E+00
 -1      4220-1.49521E+02 1.99303E+02-1.69895E+00 1.79740E+02-1.29326E+00-2.10051E+00
 -1      4221-5.67050E+02 7.37686E+01-3.57102E+00-3.58921E+01-1.09025E-01 2.47985E+00
 -1      4222-1.72451E+03-1.62002E+02-2.23825E+01-4.84932E+01 4.68424E+00 3.75282E+00
 -1      4223-1.52530E+03-1.00579E+02-1.68232E+01-1.01069E+02-4.13515E+00-1.53622E+00
 -1      4224-1.94509E+02 1.37216E+02-6.50813E+00 2.20666E+02-4.13828E+00-5.59885E+00
 -1      4225-9.79620E+02-2.84708E+01-9.78011E+00-1.25360E+02 2.46993E+00 4.51102E+00
 -1      4226 6.09202E+02 2.61639E+02-6.65851E+00 5.38481E+02 4.78054E+00 4.18187E+00
 -1      4227 1.33058E+03 5.12656E+02 3.86653E+00 8.38473E+02-4.56171E+00-7.58229E+00
 -1      4228-2.13177E+03-4.09383E+02-2.24699E-01-9.28899E+02 5.28763E+00 5.20759E+00
 -1      4229-1.35617E+03-2.63405E+02-9.37063E-01-6.05538E+02-4.38898E+00-5.89460E+00
 -1      4230-1.73699E+03-3.43738E+02-7.34613E-01-7.74735E+02 4.16267E+00 5.84011E+00
 -1      4231 2.13891E+03 6.41112E+02-1.83057E-01 1.18949E+03 5.67062E+00 7.76471E+00
 -1      4232-2.91876E+03-4.76946E+02 3.48685E+00-1.16305E+03-7.64131E+00-3.80065E+00
 -1      4233-5.29560E+03-3.38536E+02 1.02839E+01-1.22809E+03-9.76226E+00-3.82138E+00
 -1      4234-3.22941E+03-4.85915E+02 1.20344E+00-1.22540E+03 6.04298E+00 4.31876E+00
 -1      4235 5.03841E+03 5.05501E+02 8.33621E+00 1.68070E+03 9.51664E+00 9.17708E+00
 -1      4236-2.29975E+02 2.06620E+01-1.37938E+01 2.46483E+02-4.48053E+00-5.46154E+00
 -1      4237 9.53031E+02 1.23769E+02-1.51857E+01 5.88703E+02 3.42725E+00 1.22312E+00
 -1      4238-1.96413E+02 9.63362E+01-8.71328E+00 2.20776E+02 2.65225E+00 2.96069E+00
 -1      4239 5.75519E+02 1.99054E+02-9.09691E+00 5.10331E+02 3.13912E+00 6.10298E+00
 -1      4240 7.29184E+02 2.25841E+02-5.56379E+00 5.65933E+02-3.29863E+00-2.09855E+00
 -1      4241-1.40062E+03-1.07607E+02-1.84431E+01-1.18289E+02 4.31839E+00 2.05759E+00
 -1      4242 3.33145E+03 6.80560E+02 6.04894E+00 1.54234E+03 6.76339E+00 8.55169E+00
 -1      4243-4.78019E+03-4.03056E+02 3.64765E+00-1.31137E+03 8.31905E+00 3.57987E+00
 -1      4244-5.91258E+03-2.65334E+02 6.07470E+00-1.09849E+03 1.09267E+01 2.91790E+00
 -1      4245-1.11836E+03-5.75917E+01-1.59610E+01-1.32200E+02 5.15703E-01 1.84602E+00
 -1      4246-2.10799E+02 6.63195E+01-1.01324E+01 2.40801E+02 4.65458E+00 4.67385E+00
 -1      4247 3.87768E+03 6.50974E+02 6.70644E+00 1.63715E+03-7.84173E+00-8.62310E+00
 -1      4248-3.72605E+03-4.79438E+02 1.95156E+00-1.29849E+03-6.51620E+00-3.85906E+00
 -1      4249 5.66725E+03 4.00487E+02 3.93037E+00 1.62011E+03-1.01304E+01-9.08834E+00
 -1      4250 1.71596E+03 5.68793E+02 6.10261E+00 1.00267E+03-5.24007E+00-1.02901E+01
 -1      4251 1.76727E+03 5.86556E+02 2.53835E+00 1.03473E+03-4.80006E+00-7.24412E+00
 -1      4252 9.88881E+02 4.83265E+02 6.05986E-01 7.46501E+02-4.08273E+00-3.60851E+00
 -1      4253-1.35699E+03-1.30981E+02-6.48326E-01-4.41629E+02-4.16077E+00-1.00635E+00
 -1      4254-1.89237E+03-3.58571E+02 2.57815E+00-8.23252E+02-4.36476E+00-5.07749E+00
 -1      4255-1.94624E+03-3.73428E+02 5.11731E+00-8.50274E+02-6.10287E+00-9.03710E+00
 -1      4256 4.07199E+03 5.59636E+02-1.51233E-01 1.58737E+03 1.11622E+01 8.01935E+00
 -1      4257 3.99462E+03 5.76565E+02-2.21980E+00 1.59458E+03 8.57087E+00 7.63176E+00
 -1      4258 2.45941E+03 4.21467E+02-5.05795E+00 1.14728E+03 8.69976E+00 4.08938E+00
 -1      4259-4.27551E+02-7.01833E+00 2.51904E+00-1.25237E+02 7.11110E-01-2.87138E+00
 -1      4260-3.41020E+02 1.46250E+02 5.50358E+00 3.17152E+01-1.68660E+00-1.02600E+00
 -1      4261-2.27645E+03-4.00208E+02-6.33147E-01-9.37547E+02-4.40989E+00-4.73354E+00
 -1      4262 1.41229E+02 1.39826E+02 3.74439E+00 1.47020E+02-3.17025E+00-9.86672E+00
 -1      4263 1.55756E+02 1.84354E+02 4.00337E+00 1.97143E+02-4.88928E+00-4.60211E+00
 -1      4264 9.67662E+01 1.67977E+02-4.96979E+00 1.74320E+02-4.17631E+00-8.61372E+00
 -1      4265-1.50366E+01 2.18295E+02 1.73891E-01 1.87030E+02-2.02907E+00-5.35767E+00
 -1      4266-1.26864E+02 1.67163E+02-1.26376E+01 2.01630E+02 4.26804E+00-7.39579E+00
 -1      4267-7.02890E+01 1.68969E+02-9.14532E+00 1.87322E+02 2.79206E+00-6.73912E+00
 -1      4268-7.44093E+03-2.20183E+01-1.37331E+02-2.86138E+02-1.31004E+01-1.35588E+02
 -1      4269-8.53912E+03 1.71499E+02-7.79468E+01-3.04315E+02-1.79864E+02-2.64850E+02
 -1      4270-5.88289E+03-2.33563E+02-2.12073E+02 6.89962E+01-9.64257E+01-1.20469E+02
 -1      4271-7.60716E+03-6.74355E+01-5.06312E+02 2.65345E+01-4.52094E+01-3.20962E+02
 -1      4272 1.89938E+02-1.97955E+02-2.85395E+01 3.54976E+02 8.80197E-01 3.31557E+00
 -1      4273-6.68371E+01 2.44897E+02 5.19441E+00 2.20680E+02 1.02125E+00-1.04920E+00
 -1      4274-9.09963E+01 2.49966E+02-5.56480E+00 2.04064E+02-1.98525E+00 7.57732E-01
 -1      4275 1.67766E+02-1.39615E+02-3.21994E+01 3.53623E+02-8.00609E-01 1.00857E+00
 -1      4276-1.97774E+02 2.27978E+01 2.41317E+00-3.32588E+01 4.12981E+00 9.36031E+00
 -1      4277-1.20656E+02 3.94286E+01-2.17539E+00 1.30342E+01 7.19252E+00 6.57873E+00
 -1      4278-1.44757E+02 9.01092E+01 7.97466E+00 3.52418E+01 7.38110E+00 8.41725E+00
 -1      4279-1.58795E+02 1.69010E+02 4.56893E+00 1.01106E+02 4.51752E+00 5.50746E+00
 -1      4280-4.63489E+02-1.93309E+01 3.25818E+00-1.47065E+02-3.53059E+00-7.88264E+00
 -1      4281-4.01408E+02 1.56645E+01 8.14939E-01-9.84572E+01-3.98681E+00-8.71037E+00
 -1      4282 2.17715E+01 1.93464E+02 1.70946E-01 3.02765E+02 1.70726E+00 2.07115E+00
 -1      4283 5.61641E+01 7.62647E+01-1.12666E+01 1.60357E+02-3.04122E+00-9.08771E+00
 -1      4284 6.57359E+01 8.42751E+01-1.14399E+01 1.53023E+02-3.54189E-01-8.11076E+00
 -1      4285 7.58825E+00 2.09976E+02-6.10361E+00 2.86200E+02-4.86602E-01 2.41919E+00
 -1      4286-3.71933E+02-2.22637E+02-2.67880E+01 3.21592E+02-5.82050E+00-1.58021E+01
 -1      4287 1.36238E+02 1.41664E+02 2.59551E+00 1.42325E+02 3.53700E+00 8.79752E+00
 -1      4288 1.57914E+02 1.84443E+02 4.66622E+00 1.96747E+02 4.87395E+00 4.22558E+00
 -1      4289 9.88680E+01 1.67712E+02-4.92835E+00 1.65870E+02 4.25549E+00 7.90281E+00
 -1      4290-1.17986E+01 2.31242E+02 1.94468E+00 1.81807E+02 1.38675E+00 7.45263E+00
 -1      4291 9.62993E+03-1.55068E+02 1.99495E+02 1.27229E+02 1.78571E+02-4.15112E+02
 -1      4292 8.26378E+03-1.60455E+02 2.05258E+02 2.42827E+02 2.36277E+01-2.13202E+02
 -1      4293 8.24505E+03 4.40710E+01 6.19663E+02 5.04997E+02 7.43716E+01-3.62162E+02
 -1      4294 5.95901E+03 1.03788E+02 2.69375E+02 3.08822E+02 1.08160E+02-1.60846E+02
 -1      4295-8.26498E+01 1.24368E+02-1.29864E+01 1.75466E+02 4.35226E-01-2.42032E+00
 -1      4296-8.53834E+03 9.46018E+01-7.96027E+01-3.40593E+02 1.93553E+02 2.57080E+02
 -1      4297-7.44068E+03-3.95644E+01-1.39800E+02-2.75584E+02 2.36521E+01 1.24774E+02
 -1      4298-7.69864E+03-2.27559E+02-5.93607E+02 6.90287E+00 7.86940E+01 2.86347E+02
 -1      4299-5.93258E+03-2.46220E+02-1.89417E+02 4.90156E+01 9.26588E+01 1.25332E+02
 -1      4300-1.96882E+02 5.65337E+01-2.07298E+00 2.78629E+00-7.73393E-01-5.82193E+00
 -1      4301-1.15001E+02 3.83274E+01-1.78250E+00 1.88834E+01-6.05730E+00-7.39612E+00
 -1      4302-1.68183E+02 1.68888E+02 2.53582E+00 9.63755E+01-6.64312E+00-4.96307E+00
 -1      4303-1.42739E+02 7.68407E+01 5.17316E+00 3.33505E+01-4.73484E+00-6.80290E+00
 -1      4304-2.31079E+02 1.74663E+02 2.27589E+00 9.57826E+01-3.86144E+00-3.80680E+00
 -1      4305 9.13602E+03 4.84547E+02 1.79141E+03 4.63088E+02 2.27432E+01-6.26274E+02
 -1      4306 5.26466E+03 7.85133E+02 1.03387E+03 5.19144E+02 8.08470E+01-4.35333E+02
 -1      4307-1.18453E+02 2.75734E+02 1.25346E+01 1.22032E+02 7.78533E+00-3.13166E-01
 -1      4308-1.14431E+02 2.23691E+02 1.20407E+01 9.89001E+01 6.69200E+00 2.32789E+00
 -1      4309 9.63025E+03-1.50668E+02 2.07352E+02 1.29578E+02-1.79440E+02 4.21026E+02
 -1      4310 8.26780E+03-1.58508E+02 2.07329E+02 2.44752E+02-2.55938E+01 2.18839E+02
 -1      4311 8.23474E+03 5.54092E+00 5.98373E+02 5.00106E+02-5.69296E+01 3.70038E+02
 -1      4312 5.97628E+03 9.22843E+01 2.73832E+02 3.16141E+02-1.01102E+02 1.46465E+02
 -1      4313-1.28866E+03-1.12967E+02 5.91249E-01-4.18984E+02 2.29671E+00 3.78468E+00
 -1      4314-1.83488E+03-3.66853E+02-2.08565E-01-8.10271E+02 5.86026E+00 8.92957E+00
 -1      4315 8.84173E+03 3.70839E+02 1.33297E+03 3.13761E+02 7.98924E+00-9.50655E+02
 -1      4316 9.10268E+03 4.84006E+02 1.82565E+03 5.29255E+02-5.77294E+01 6.12253E+02
 -1      4317 5.30201E+03 7.79887E+02 1.04852E+03 5.16430E+02-7.55657E+01 4.12126E+02
 -1      4318-5.93531E+01 1.32593E+02 1.36971E+01 1.69382E+01 6.61875E+00 7.88869E+00
 -1      4319-6.12498E+01 1.16516E+02 1.31342E+01 1.98996E+01 6.90972E+00 4.90684E+00
 -1      4320-7.29944E+01 2.29638E+02 1.30657E+01 9.24344E+01 1.27137E+00 1.18891E+00
 -1      4321-4.80814E+03-6.17170E+02-1.73709E+02-1.63434E+02 1.03397E+02-3.17015E+02
 -1      4322 4.47584E+03 7.68655E+02 7.54814E+02 3.91722E+01-1.99949E+01-4.99878E+02
 -1      4323 6.59082E+03 6.80503E+02 5.41963E+02 1.94189E+02 4.34974E+01-5.31229E+02
 -1      4324 4.06420E+01 8.26822E+01-1.83766E+01 1.57594E+02 1.73956E+00 6.30753E+00
 -1      4325-6.46903E+03-1.14226E+03-7.05458E+02-2.23959E+01-7.79259E+01-5.21567E+02
 -1      4326-5.52231E+03-1.19596E+03-1.26863E+03 2.71955E+02-1.38686E+02-4.75080E+02
 -1      4327 8.83545E+03 3.72398E+02 1.35325E+03 3.11378E+02-1.34112E+01 9.59081E+02
 -1      4328 4.46487E+03 7.67555E+02 7.56203E+02 3.61135E+01 1.50540E+01 5.01972E+02
 -1      4329 6.58586E+03 6.82168E+02 5.47177E+02 1.91590E+02-4.13925E+01 5.31288E+02
 -1      4330 1.36844E+03 5.19994E+02 1.08391E+00 8.53962E+02-6.12668E+00-6.24053E+00
 -1      4331 7.39708E+02 4.47401E+02 4.11885E-01 6.27944E+02-3.34229E+00-3.12561E+00
 -1      4332 1.31497E+03 4.95595E+02 8.67798E-01 8.20623E+02-6.33141E+00-9.65776E+00
 -1      4333-9.76047E+02-4.50115E+01-2.91102E-01-2.90118E+02-2.78930E+00-2.55267E+00
 -1      4334-1.33656E+03-2.65007E+02 1.92414E+00-5.95403E+02-6.13653E+00-9.30646E+00
 -1      4335-1.40109E+03-2.71882E+02 6.49400E-01-6.14584E+02-2.79547E+00-5.99218E+00
 -1      4336 1.12917E+03 4.98533E+02-1.66713E+00 8.07709E+02 4.64423E+00 2.73796E+00
 -1      4337 1.97315E+03 5.98393E+02 2.05039E+00 1.10949E+03 8.00527E+00 9.56836E+00
 -1      4338 1.89996E+03 5.98902E+02 1.54329E+00 1.09182E+03 5.85222E+00 6.80265E+00
 -1      4339-2.15387E+03-4.01358E+02 2.05921E+00-9.15866E+02 4.02259E+00 5.58454E+00
 -1      4340-2.08404E+03-4.00019E+02 3.23349E+00-9.00813E+02 6.15030E+00 8.40687E+00
 -1      4341-1.46860E+03-1.46768E+02-1.41406E-01-4.79765E+02 3.72689E+00 8.75566E-01
 -1      4342-3.37181E+03-2.14757E+02-6.57871E+00-6.29290E+02-1.31440E+01 3.18518E-01
 -1      4343-4.89615E+03-3.47975E+02-7.72529E-01-1.18830E+03-1.01720E+01-1.84272E+00
 -1      4344-4.98684E+03-3.44860E+02 8.11268E+00-1.18560E+03-1.14537E+01-8.46678E+00
 -1      4345-3.21689E+03-4.68582E+02 1.70437E-01-1.17647E+03 5.30010E+00 4.05809E+00
 -1      4346-3.14324E+03-4.74984E+02 3.87186E+00-1.17434E+03 8.81227E+00 8.51440E+00
 -1      4347-2.16994E+03-2.23763E+02-3.74334E+00-6.44057E+02 6.89934E+00 9.59434E-01
 -1      4348 4.94038E+03 4.44792E+02 1.02691E+00 1.59096E+03 1.19771E+01 7.77348E+00
 -1      4349 4.83659E+03 4.47617E+02 5.07516E+00 1.58540E+03 1.15082E+01 1.04402E+01
 -1      4350 2.92279E+03 3.10658E+02-5.75795E+00 1.14610E+03 1.17725E+01 2.46442E+00
 -1      4351 1.92587E+03 4.87228E+02-3.39967E+00 1.06242E+03 7.18446E+00 2.95498E+00
 -1      4352 3.30030E+03 6.41577E+02-1.35600E+00 1.50095E+03 8.03087E+00 6.89146E+00
 -1      4353 3.22019E+03 6.32305E+02 3.21768E+00 1.47490E+03 8.81815E+00 9.50909E+00
 -1      4354 3.16211E+03 2.55126E+02-8.94450E+00 1.13092E+03-1.32397E+01-3.63601E+00
 -1      4355 5.16756E+03 3.98236E+02 1.24813E+00 1.57150E+03-1.12711E+01-8.23602E+00
 -1      4356 5.25548E+03 3.75368E+02 6.67602E+00 1.54385E+03-1.40811E+01-1.08288E+01
 -1      4357 5.16246E+01 7.60934E+01-8.48346E+00 1.62162E+02 2.47220E+00 6.11253E+00
 -1      4358-6.13881E+01 1.66546E+02-9.69811E+00 1.89607E+02-1.00133E+00 6.77104E+00
 -1      4359-3.17428E+03-2.26894E+02-7.86126E+00-6.68365E+02 1.19182E+01-5.49193E-02
 -1      4360-4.69410E+03-3.80874E+02-6.65996E-01-1.21026E+03 8.80999E+00 2.70452E+00
 -1      4361-4.61835E+03-3.95213E+02 6.18425E+00-1.22940E+03 1.33651E+01 8.63567E+00
 -1      4362 2.24737E+03 4.48418E+02-4.28092E+00 1.12025E+03-6.78640E+00-2.54777E+00
 -1      4363 3.72796E+03 5.98246E+02 2.97494E+00 1.55587E+03-8.55774E+00-1.00151E+01
 -1      4364 3.81489E+03 6.01901E+02-7.73809E-01 1.57624E+03-7.78017E+00-7.20555E+00
 -1      4365 6.32838E+02 3.44290E+02 2.55580E+00 4.78028E+02 3.91369E+00 6.24904E+00
 -1      4366-5.69848E+03-2.68567E+02 1.05177E+01-1.01127E+03 1.35564E+01 9.32314E+00
 -1      4367-3.90990E+03-1.96117E+02-8.37694E+00-5.12369E+02 1.56940E+01-4.75343E-01
 -1      4368-5.77234E+03-2.52998E+02 1.60374E+00-9.72438E+02 1.12816E+01 3.34772E+00
 -1      4369 2.30623E+03 6.32791E+02-8.70366E-01 1.23463E+03 6.52436E+00 7.13766E+00
 -1      4370 9.56765E+02 4.24207E+02 2.45289E+00 6.53226E+02 4.07373E+00 6.41056E+00
 -1      4371 2.84935E+03 6.60147E+02 6.71608E-01 1.41105E+03 7.59298E+00 7.21977E+00
 -1      4372 6.32785E+03 1.46447E+02 3.54056E-01 1.24233E+03 1.43024E+01 1.01196E+01
 -1      4373-8.30492E+03-5.38143E+02-1.79159E+03 1.02011E+02 4.77327E+01 5.81411E+02
 -1      4374-7.98130E+03-3.97455E+02-1.30480E+03 5.83688E+00 3.77072E+01 8.67175E+02
 -1      4375-5.56386E+03-1.05406E+03-1.25749E+03 2.82030E+02 1.39528E+02 4.89190E+02
 -1      4376-1.17978E+02 2.73099E+02 1.04458E+01 1.21226E+02-6.56494E+00 1.08761E+00
 -1      4377-7.58002E+01 2.35359E+02 1.35844E+01 8.83945E+01-1.50828E+00-1.12371E+00
 -1      4378-1.15353E+02 2.25148E+02 1.35231E+01 9.10125E+01-7.35519E+00-2.82756E+00
 -1      4379-4.75197E+03-5.91877E+02-1.37887E+02-2.08092E+02-1.12240E+02 3.29978E+02
 -1      4380-3.68949E+03-4.55958E+02 1.86091E+00-1.23183E+03-8.16772E+00-2.78340E+00
 -1      4381-2.49369E+03-2.34712E+02-4.59926E+00-6.82761E+02-9.08006E+00 2.33740E-01
 -1      4382-3.61499E+03-4.67592E+02 4.85337E+00-1.23493E+03-1.09504E+01-7.06574E+00
 -1      4383-8.05378E+03-5.30354E+02-1.68954E+03 1.75135E+02-8.26698E+00-6.12872E+02
 -1      4384-8.09787E+03-5.58207E+02-1.48582E+03 6.73708E+01-8.87156E+01-8.70654E+02
 -1      4385 6.91238E+03 1.87831E+01-2.16791E+00 9.81931E+02 1.56678E+01 1.53846E+01
 -1      4386-9.55854E+01 1.50299E+02-1.02934E+01 1.88781E+02-9.23493E+00 1.04011E+01
 -1      4387-6.48181E+03-1.07267E+03-6.85967E+02-2.10374E+01 7.26609E+01 5.31907E+02
 -1      4388-1.71119E+03-3.42161E+02 2.82998E+00-7.60696E+02 6.73436E+00 9.60584E+00
 -1      4389-1.22319E+03-1.01293E+02-1.14547E-01-3.94594E+02 2.93491E+00 1.69557E+00
 -1      4390-1.77564E+03-3.45927E+02 1.61948E+00-7.78281E+02 3.81281E+00 6.20080E+00
 -1      4391-8.44622E+01 1.18048E+02-1.22016E+01 1.86401E+02 1.10128E+00 1.24849E+00
 -1      4392-1.97548E+02 2.13493E+02-5.57221E-01 1.34418E+02 1.92374E+00 2.84148E+00
 -1      4393-5.74652E+01 1.30513E+02 1.97295E+01 2.56581E+01-4.90864E+00-5.63669E+00
 -1      4394-5.80937E+01 1.34875E+02 1.10040E+01 1.74036E+01-4.42817E+00-7.97013E+00
 -1      4395-2.39337E+02 2.23864E+02-1.17965E+00 1.27818E+02-5.38070E-01 5.07758E-02
 -1      4396-2.72374E+02 3.92901E+01 1.54605E+00-3.77623E+01-3.05560E+00-6.08179E+00
 -1      4397-2.86418E+02 1.67978E+02 2.08306E+00 7.66784E+01-3.30381E+00-1.92407E+00
 -1      4398-4.09113E+02 1.21625E+02 2.22845E+00-4.78607E+00-4.08363E+00-1.63976E+00
 -1      4399-3.45920E+02 1.53600E+02-1.03205E-01 3.74793E+01-4.97012E-01-2.84558E+00
 -1      4400-5.24344E+02-2.78059E+01 2.41773E+00-1.72008E+02-3.54564E+00-6.57788E+00
 -1      4401-3.54394E+02 4.01626E+01 1.67978E+00-6.36547E+01-3.22603E+00-5.32374E+00
 -1      4402-4.59690E+02-1.37562E+01 9.83420E-01-1.41804E+02-3.95391E+00-6.08406E+00
 -1      4403-5.90052E+02-4.05437E+01 2.10430E+00-1.96309E+02-3.81734E+00-5.15542E+00
 -3
    1PSTEP                         3           1           1          
  100CL  101 1.000000000        4403                     0    1           1
 -4  FORC        4    1
 -5  F1          1    2    1    0
 -5  F2          1    2    2    0
 -5  F3          1    2    3    0
 -5  ALL         1    2    0    0    1ALL
 -1         1-2.03007E+03-1.38187E+03 1.53232E+03
 -1         2-2.03071E+03-1.38110E+03-1.53271E+03
 -1         3 1.77957E+03-1.29959E+03-1.35044E+03
 -1         4 1.79121E+03-1.30023E+03 1.35620E+03
 -1         5-3.31833E-04 9.93202E-04-2.48679E-04
 -1         6-3.63301E-04 9.93294E-04 2.31090E-04
 -1         7-9.69665E-04-3.55728E-04-1.71740E-04
 -1         8-9.83485E-04-3.25122E-04 1.88411E-04
 -1         9-2.33842E+03-2.46284E+03-1.93240E+01
 -1        10-2.85451E+03-2.85446E+03-1.34511E+02
 -1        11-2.32831E+03-2.47123E+03 1.97689E+01
 -1        12-9.71440E+03-3.81064E+03-1.27904E+03
 -1        13-1.10210E+04-4.35308E+03-4.17455E+02
 -1        14-1.12250E+04-4.54473E+03 5.24880E+02
 -1        15-9.71623E+03-3.82401E+03 1.27874E+03
 -1        16-1.13880E+03 2.60950E+02 1.10632E+03
 -1        17 2.38598E+02 2.36279E+02-2.57348E+02
 -1        18 1.27536E+03 6.07942E+01-1.42565E+03
 -1        19-8.52913E+03 3.64801E+02 3.83207E+03
 -1        20-2.82490E+03 1.29021E+03 1.20791E+03
 -1        21 3.22166E+03 1.13222E+03-1.48065E+03
 -1        22 8.18673E+03 5.51634E+02-3.59425E+03
 -1        23 1.78069E+03-2.11829E+03 1.58666E+02
 -1        24 2.42632E+03-2.58158E+03 1.38938E+02
 -1        25 2.00782E+03-2.23056E+03 2.11180E+01
 -1        26 8.57645E+03-3.23030E+03 1.01129E+03
 -1        27 9.46963E+03-3.73503E+03 2.48964E+02
 -1        28 1.06264E+04-3.95513E+03-5.02214E+02
 -1        29 8.61822E+03-3.28036E+03-1.08070E+03
 -1        30-1.11997E+03 2.57110E+02-1.10144E+03
 -1        31 1.96431E+02 2.41200E+02 2.59638E+02
 -1        32 1.29361E+03 8.21865E+01 1.42945E+03
 -1        33-8.53267E+03 3.65543E+02-3.83370E+03
 -1        34-2.76454E+03 1.26156E+03-1.19515E+03
 -1        35 3.44518E+03 1.20935E+03 1.50682E+03
 -1        36 8.23584E+03 5.63210E+02 3.61815E+03
 -1        37-2.63423E-04 9.21742E-04 6.17095E-05
 -1        38-1.61324E-04 1.01857E-03-6.24757E-06
 -1        39-2.19214E-04 8.91713E-04-6.99239E-05
 -1        40 1.59871E+00 1.52058E+02-2.00151E-04
 -1        41 1.91340E+00 1.85789E+02-2.59530E-05
 -1        42 1.74297E+00 1.64213E+02 4.87047E-05
 -1        43 1.59394E+00 1.52066E+02 1.89035E-04
 -1        44 1.80098E-04 1.81353E-04 1.42165E-05
 -1        45 2.28364E-04-9.46036E-05 1.07267E-04
 -1        46 1.92432E-05-1.82238E-04 1.35316E-04
 -1        47 1.00768E+00 1.53088E+02 7.09218E-01
 -1        48 1.07369E+00 1.62818E+02 7.91377E-01
 -1        49 1.24597E+00 1.88800E+02 8.24893E-01
 -1        50 1.00126E+00 1.51831E+02 7.14106E-01
 -1        51-9.69126E-04-1.20845E-04 3.84865E-05
 -1        52-1.04967E-03-1.10887E-04-8.82703E-06
 -1        53-8.64891E-04-2.28816E-04-2.11682E-05
 -1        54 4.15575E-01 1.54123E+02 3.51004E-05
 -1        55 5.86535E-01 1.93972E+02 2.22293E-06
 -1        56 3.44686E-01 1.52972E+02-8.20422E-05
 -1        57 4.11966E-01 1.52856E+02-9.47065E-05
 -1        58 2.54067E-04 1.87705E-04-1.87148E-05
 -1        59 2.10088E-04-7.49038E-05-1.12249E-04
 -1        60 3.18745E-05-1.95112E-04-1.43160E-04
 -1        61 1.00769E+00 1.53088E+02-7.09248E-01
 -1        62 1.16594E+00 1.76795E+02-7.91379E-01
 -1        63 1.16441E+00 1.76436E+02-8.24947E-01
 -1        64 1.00955E+00 1.53090E+02-7.14125E-01
 -1        65 8.90652E-04 4.85253E-04-2.62274E-04
 -1        66 3.24027E-03 6.55339E-04-3.93159E-04
 -1        67 4.74751E-03 8.81942E-04-3.53507E-04
 -1        68 1.15471E-02 2.19743E-03-3.86527E-04
 -1        69 7.99387E-03 1.87886E-03-3.98139E-04
 -1        70 1.68915E-02 4.41361E-03-4.37574E-04
 -1        71 1.10138E-02 3.46136E-03-3.41377E-04
 -1        72 1.24817E-02 4.31656E-03-3.39858E-04
 -1        73 2.46423E-02 9.04306E-03-3.38278E-04
 -1        74 2.52138E-02 1.00103E-02-3.87539E-04
 -1        75 1.65568E-02 7.07919E-03-4.29564E-04
 -1        76 1.79182E-02 8.00459E-03-4.06301E-04
 -1        77 3.36615E-02 1.52953E-02-4.83805E-04
 -1        78 2.00549E-02 9.14670E-03-5.81921E-04
 -1        79 3.44867E-02 1.57680E-02-8.27452E-04
 -1        80 3.81516E-02 1.77556E-02-9.65021E-04
 -1        81 2.25231E-02 9.79141E-03-1.46351E-03
 -1        82 2.25865E-02 9.36936E-03-1.82772E-03
 -1        83 3.82103E-02 1.62698E-02-1.69201E-03
 -1        84 2.13323E-02 7.42990E-03-2.50763E-03
 -1        85 3.45830E-02 1.34144E-02-2.16367E-03
 -1        86 1.83364E-02 5.25137E-03-2.92358E-03
 -1        87 2.59555E-02 8.04866E-03-2.66720E-03
 -1        88 2.25484E-02 6.40060E-03-2.70131E-03
 -1        89 1.16819E-02 2.05477E-03-2.88982E-03
 -1        90 1.45314E-02 3.23191E-03-2.21322E-03
 -1        91 1.15969E-02 2.47590E-03-1.86739E-03
 -1        92 7.98512E-03 1.68911E-03-1.38823E-03
 -1        93 3.22711E-03 1.09402E-04-1.39467E-03
 -1        94 3.12321E-03 8.09073E-04-8.19387E-04
 -1        95 1.03491E-03 1.65611E-04-5.62566E-04
 -1        96 4.62698E-04 2.48793E-04-2.89018E-04
 -1        97 1.08563E-04 7.60410E-05-1.74052E-04
 -1        98 2.39467E-03-3.73445E-03-2.93920E-03
 -1        99 2.03016E-03-1.22644E-02-8.30038E-03
 -1       100 4.29432E-03-2.66717E-02-1.67759E-02
 -1       101 8.43277E-03-4.83243E-02-2.99596E-02
 -1       102 1.49455E-02-7.68625E-02-4.75594E-02
 -1       103 2.45369E-02-1.12927E-01-6.99365E-02
 -1       104 3.79014E-02-1.55909E-01-9.57554E-02
 -1       105 5.52459E-02-2.06014E-01-1.26619E-01
 -1       106 7.68956E-02-2.61921E-01-1.61560E-01
 -1       107 1.03088E-01-3.24054E-01-2.01258E-01
 -1       108 1.34191E-01-3.92148E-01-2.45255E-01
 -1       109 1.70295E-01-4.65872E-01-2.92426E-01
 -1       110 2.10799E-01-5.45239E-01-3.47935E-01
 -1       111 2.54526E-01-6.25310E-01-4.00840E-01
 -1       112 3.04480E-01-7.16263E-01-4.63825E-01
 -1       113 3.54777E-01-8.03256E-01-5.25291E-01
 -1       114 4.13690E-01-9.06694E-01-5.94764E-01
 -1       115 4.71076E-01-1.00354E+00-6.62134E-01
 -1       116 5.29301E-01-1.09932E+00-7.26836E-01
 -1       117 5.86808E-01-1.19311E+00-7.90375E-01
 -1       118 6.42945E-01-1.28186E+00-8.52037E-01
 -1       119 6.95179E-01-1.36343E+00-9.16326E-01
 -1       120 7.44199E-01-1.43649E+00-9.68903E-01
 -1       121 7.87572E-01-1.49889E+00-1.01428E+00
 -1       122 8.25383E-01-1.55042E+00-1.05232E+00
 -1       123 8.57185E-01-1.59008E+00-1.08242E+00
 -1       124 8.82894E-01-1.61931E+00-1.10538E+00
 -1       125 9.02817E-01-1.63882E+00-1.12154E+00
 -1       126 9.17807E-01-1.65082E+00-1.13229E+00
 -1       127 9.28397E-01-1.65618E+00-1.13837E+00
 -1       128 9.35319E-01-1.65757E+00-1.14136E+00
 -1       129 9.34636E-01-1.64760E+00-1.12046E+00
 -1       130 9.52933E-01-1.67369E+00-1.15499E+00
 -1       131 6.54180E-01-1.14527E+00-7.97201E-01
 -1       132 8.81221E-04 4.88065E-04 2.54547E-04
 -1       133 3.22732E-03 6.37863E-04 3.95916E-04
 -1       134 8.45016E-03 1.33226E-03 3.87330E-04
 -1       135 1.09149E-02 1.97906E-03 4.13472E-04
 -1       136 7.98543E-03 1.96825E-03 3.49201E-04
 -1       137 1.61101E-02 4.35941E-03 4.23978E-04
 -1       138 1.11102E-02 3.47989E-03 3.50865E-04
 -1       139 2.21296E-02 7.32719E-03 4.30489E-04
 -1       140 1.40082E-02 5.15670E-03 3.94654E-04
 -1       141 1.53468E-02 6.22203E-03 3.35611E-04
 -1       142 2.74001E-02 1.14660E-02 4.30417E-04
 -1       143 3.15192E-02 1.38955E-02 4.87819E-04
 -1       144 1.88661E-02 8.33093E-03 6.47682E-04
 -1       145 3.24000E-02 1.49441E-02 6.39020E-04
 -1       146 3.38549E-02 1.56953E-02 8.24720E-04
 -1       147 2.15062E-02 9.62555E-03 1.09453E-03
 -1       148 3.63248E-02 1.63526E-02 1.25193E-03
 -1       149 3.90725E-02 1.70609E-02 1.53253E-03
 -1       150 3.47421E-02 1.43233E-02 1.84755E-03
 -1       151 2.13848E-02 7.69304E-03 2.46563E-03
 -1       152 3.30530E-02 1.24323E-02 2.19864E-03
 -1       153 3.14974E-02 1.09553E-02 2.45835E-03
 -1       154 2.60603E-02 8.15451E-03 2.57841E-03
 -1       155 1.41284E-02 3.14399E-03 2.97852E-03
 -1       156 1.95730E-02 5.66357E-03 2.32659E-03
 -1       157 9.04027E-03 1.08810E-03 2.55928E-03
 -1       158 6.89226E-03 7.63406E-04 2.16767E-03
 -1       159 7.60071E-03 1.65270E-03 1.37940E-03
 -1       160 3.22922E-03 1.06044E-04 1.38661E-03
 -1       161 2.94852E-03 6.58385E-04 7.76727E-04
 -1       162 9.93424E-04 4.42698E-05 6.03747E-04
 -1       163 5.05985E-04 1.46351E-04 3.22743E-04
 -1       164 1.10996E-04 7.03410E-05 1.83680E-04
 -1       165 2.38776E-03-3.70716E-03 2.95178E-03
 -1       166 2.01931E-03-1.22242E-02 8.29992E-03
 -1       167 4.26323E-03-2.65360E-02 1.67792E-02
 -1       168 8.45520E-03-4.85135E-02 2.99589E-02
 -1       169 1.47607E-02-7.60546E-02 4.75892E-02
 -1       170 2.42527E-02-1.11803E-01 6.99851E-02
 -1       171 3.79198E-02-1.56500E-01 9.64585E-02
 -1       172 5.51269E-02-2.06067E-01 1.27402E-01
 -1       173 7.67205E-02-2.61964E-01 1.62728E-01
 -1       174 1.02994E-01-3.24160E-01 2.02551E-01
 -1       175 1.34067E-01-3.92260E-01 2.46722E-01
 -1       176 1.70008E-01-4.66021E-01 2.95180E-01
 -1       177 2.10758E-01-5.45249E-01 3.47898E-01
 -1       178 2.51218E-01-6.16638E-01 3.96479E-01
 -1       179 2.99194E-01-7.02858E-01 4.55163E-01
 -1       180 3.52948E-01-7.98603E-01 5.20628E-01
 -1       181 4.10785E-01-8.99770E-01 5.90286E-01
 -1       182 4.71090E-01-1.00340E+00 6.62113E-01
 -1       183 5.29202E-01-1.09951E+00 7.26871E-01
 -1       184 5.86907E-01-1.19319E+00 7.90461E-01
 -1       185 6.42676E-01-1.28159E+00 8.51886E-01
 -1       186 6.95296E-01-1.36348E+00 9.16424E-01
 -1       187 7.43945E-01-1.43640E+00 9.68832E-01
 -1       188 7.87582E-01-1.49914E+00 1.01441E+00
 -1       189 8.25535E-01-1.55031E+00 1.05235E+00
 -1       190 8.57012E-01-1.58991E+00 1.08237E+00
 -1       191 8.83152E-01-1.61973E+00 1.10558E+00
 -1       192 9.03064E-01-1.63908E+00 1.12171E+00
 -1       193 9.17736E-01-1.65073E+00 1.13227E+00
 -1       194 9.28358E-01-1.65622E+00 1.13841E+00
 -1       195 9.35367E-01-1.65753E+00 1.14137E+00
 -1       196 9.21627E-01-1.62476E+00 1.12040E+00
 -1       197 9.52580E-01-1.67321E+00 1.15498E+00
 -1       198 6.59401E-01-1.15440E+00 7.97204E-01
 -1       199 5.23851E-04-4.13606E-04-1.57554E-04
 -1       200 2.79842E-03 1.59155E-04-4.92184E-04
 -1       201 7.18510E-03 1.17873E-03-4.83447E-04
 -1       202 5.41735E-03 9.85852E-04-4.15243E-04
 -1       203 6.80406E-03 1.51099E-03-4.21217E-04
 -1       204 8.11157E-03 2.11246E-03-4.77822E-04
 -1       205 1.53624E-02 4.84924E-03-5.14339E-04
 -1       206 1.87158E-02 6.62510E-03-4.76561E-04
 -1       207 1.16930E-02 4.56468E-03-5.52617E-04
 -1       208 1.28252E-02 5.44181E-03-5.55803E-04
 -1       209 2.30836E-02 1.05161E-02-5.31610E-04
 -1       210 2.67057E-02 1.29496E-02-5.28894E-04
 -1       211 1.58991E-02 8.13559E-03-5.36169E-04
 -1       212 1.66574E-02 9.04755E-03-6.37155E-04
 -1       213 1.71250E-02 9.98285E-03-7.05946E-04
 -1       214 1.78629E-02 1.11706E-02-9.40927E-04
 -1       215 3.01380E-02 1.94303E-02-1.00486E-03
 -1       216 3.19486E-02 2.18131E-02-1.11099E-03
 -1       217 1.68663E-02 1.32726E-02-2.03897E-03
 -1       218 1.59490E-02 1.38180E-02-2.05183E-03
 -1       219 1.40759E-02 1.34566E-02-1.95687E-03
 -1       220 2.13647E-02 2.07548E-02-1.93458E-03
 -1       221 1.93166E-02 2.09156E-02-1.98792E-03
 -1       222 1.41998E-02 1.78476E-02-2.07696E-03
 -1       223 1.21494E-02 1.66207E-02-1.73745E-03
 -1       224 4.11054E-03 8.92107E-03-2.17154E-03
 -1       225 2.57707E-03 7.23465E-03-1.77995E-03
 -1       226 1.13623E-03 5.56703E-03-1.47318E-03
 -1       227 1.15911E-04 4.03090E-03-1.21946E-03
 -1       228-2.94707E-04 2.65965E-03-6.81934E-04
 -1       229-6.10363E-04 1.58108E-03-4.11448E-04
 -1       230-6.09368E-04 8.13793E-04-1.80459E-04
 -1       231-5.76755E-04 3.19844E-04-9.19986E-05
 -1       232 2.54006E-03 4.15554E-03-3.70457E-03
 -1       233 1.02743E-03 1.19142E-02-8.68261E-03
 -1       234 5.25967E-04 2.64196E-02-1.74609E-02
 -1       235-1.56333E-03 4.81494E-02-3.05188E-02
 -1       236-6.16249E-03 7.66147E-02-4.82546E-02
 -1       237-1.38032E-02 1.12587E-01-7.07874E-02
 -1       238-2.47114E-02 1.55638E-01-9.57908E-02
 -1       239-3.98330E-02 2.05717E-01-1.26105E-01
 -1       240-5.93283E-02 2.61633E-01-1.61079E-01
 -1       241-8.33230E-02 3.23747E-01-1.99208E-01
 -1       242-1.12299E-01 3.91798E-01-2.42754E-01
 -1       243-1.46305E-01 4.65487E-01-2.92032E-01
 -1       244-1.85046E-01 5.44677E-01-3.43086E-01
 -1       245-2.26982E-01 6.24686E-01-3.99346E-01
 -1       246-2.75190E-01 7.15626E-01-4.55613E-01
 -1       247-3.24368E-01 8.02351E-01-5.17728E-01
 -1       248-3.82412E-01 9.05130E-01-5.93471E-01
 -1       249-4.39206E-01 1.00174E+00-6.60051E-01
 -1       250-4.97418E-01 1.09765E+00-7.26571E-01
 -1       251-5.55394E-01 1.19149E+00-7.77128E-01
 -1       252-6.12244E-01 1.27972E+00-8.38866E-01
 -1       253-6.67127E-01 1.36086E+00-9.12147E-01
 -1       254-7.18049E-01 1.43284E+00-9.64273E-01
 -1       255-7.64431E-01 1.49490E+00-1.00988E+00
 -1       256-8.05206E-01 1.54583E+00-1.04810E+00
 -1       257-8.40136E-01 1.58517E+00-1.07862E+00
 -1       258-8.68886E-01 1.61474E+00-1.10211E+00
 -1       259-8.91837E-01 1.63447E+00-1.11891E+00
 -1       260-9.09024E-01 1.64629E+00-1.12994E+00
 -1       261-9.21802E-01 1.65236E+00-1.13666E+00
 -1       262-9.30729E-01 1.65432E+00-1.14007E+00
 -1       263-9.31413E-01 1.64511E+00-1.13525E+00
 -1       264-9.50868E-01 1.67192E+00-1.15490E+00
 -1       265-6.52676E-01 1.14411E+00-7.91246E-01
 -1       266 5.29035E-04-4.12508E-04 1.50557E-04
 -1       267 2.78264E-03 1.76921E-04 4.94264E-04
 -1       268 4.10516E-03 5.55781E-04 4.69903E-04
 -1       269 9.63344E-03 2.07077E-03 4.69916E-04
 -1       270 6.80229E-03 1.49158E-03 4.14816E-04
 -1       271 1.43370E-02 3.82836E-03 4.56029E-04
 -1       272 9.51557E-03 2.98649E-03 5.06127E-04
 -1       273 1.07747E-02 3.78233E-03 5.11712E-04
 -1       274 2.11892E-02 8.32442E-03 5.66478E-04
 -1       275 2.16460E-02 9.26655E-03 5.55031E-04
 -1       276 1.42248E-02 6.50886E-03 5.70710E-04
 -1       277 1.53026E-02 7.29856E-03 5.22045E-04
 -1       278 2.84304E-02 1.48352E-02 6.98886E-04
 -1       279 1.65918E-02 9.01881E-03 6.50166E-04
 -1       280 2.87012E-02 1.64688E-02 8.10507E-04
 -1       281 3.20400E-02 1.92207E-02 7.08771E-04
 -1       282 1.81661E-02 1.18154E-02 1.09289E-03
 -1       283 1.79207E-02 1.29134E-02 1.48570E-03
 -1       284 1.68820E-02 1.32664E-02 2.01025E-03
 -1       285 1.58332E-02 1.36249E-02 1.99831E-03
 -1       286 2.56551E-02 2.21017E-02 1.35050E-03
 -1       287 1.25533E-02 1.35515E-02 2.47361E-03
 -1       288 1.76835E-02 1.95258E-02 2.17694E-03
 -1       289 1.44895E-02 1.80267E-02 2.14196E-03
 -1       290 6.07114E-03 1.04310E-02 2.39175E-03
 -1       291 7.60595E-03 1.34991E-02 1.74908E-03
 -1       292 5.34151E-03 1.16354E-02 1.47322E-03
 -1       293 2.86557E-03 8.86489E-03 1.12321E-03
 -1       294 1.69340E-04 4.08623E-03 1.13549E-03
 -1       295-5.73543E-05 4.42015E-03 6.19483E-04
 -1       296-6.47303E-04 2.47396E-03 3.93123E-04
 -1       297-7.95805E-04 1.26518E-03 1.91574E-04
 -1       298-5.96320E-04 3.07905E-04 1.20582E-04
 -1       299 2.51029E-03 4.10558E-03 3.70587E-03
 -1       300 1.01687E-03 1.18773E-02 8.68312E-03
 -1       301 5.15575E-04 2.62529E-02 1.74451E-02
 -1       302-1.57152E-03 4.82841E-02 3.04901E-02
 -1       303-6.11651E-03 7.57570E-02 4.82519E-02
 -1       304-1.37164E-02 1.11358E-01 7.07691E-02
 -1       305-2.50214E-02 1.56066E-01 9.74124E-02
 -1       306-4.01086E-02 2.05539E-01 1.28503E-01
 -1       307-5.96209E-02 2.61445E-01 1.64042E-01
 -1       308-8.37312E-02 3.23556E-01 2.03960E-01
 -1       309-1.12740E-01 3.91549E-01 2.48152E-01
 -1       310-1.46670E-01 4.65271E-01 2.96590E-01
 -1       311-1.85383E-01 5.44367E-01 3.49090E-01
 -1       312-2.24122E-01 6.15757E-01 4.02738E-01
 -1       313-2.70548E-01 7.01754E-01 4.63883E-01
 -1       314-3.22629E-01 7.97378E-01 5.23136E-01
 -1       315-3.79631E-01 8.98202E-01 5.93552E-01
 -1       316-4.39449E-01 1.00190E+00 6.60144E-01
 -1       317-4.97573E-01 1.09762E+00 7.26528E-01
 -1       318-5.55250E-01 1.19139E+00 7.77053E-01
 -1       319-6.12184E-01 1.28002E+00 8.39083E-01
 -1       320-6.67322E-01 1.36053E+00 9.12026E-01
 -1       321-7.18108E-01 1.43285E+00 9.64204E-01
 -1       322-7.64394E-01 1.49492E+00 1.00982E+00
 -1       323-8.05549E-01 1.54587E+00 1.04813E+00
 -1       324-8.40033E-01 1.58544E+00 1.07860E+00
 -1       325-8.68804E-01 1.61450E+00 1.10204E+00
 -1       326-8.91547E-01 1.63401E+00 1.11870E+00
 -1       327-9.09168E-01 1.64606E+00 1.12990E+00
 -1       328-9.21719E-01 1.65218E+00 1.13653E+00
 -1       329-9.30700E-01 1.65410E+00 1.13999E+00
 -1       330-9.18489E-01 1.62217E+00 1.13516E+00
 -1       331-9.50542E-01 1.67130E+00 1.15483E+00
 -1       332-6.57913E-01 1.15317E+00 7.91209E-01
 -1       333-1.20520E+02-5.29479E+02-1.37128E+02
 -1       334 3.33307E+02-6.06324E+02 8.15213E+01
 -1       335 3.39775E+02-3.82862E+02 2.01715E+02
 -1       336 2.70507E+02-2.81637E+02-6.49784E+01
 -1       337 2.06103E+02-6.01010E+02-1.61056E+00
 -1       338 6.36256E+02-6.01849E+02 2.01560E+02
 -1       339-5.61283E+01-3.09326E+02 1.26464E+02
 -1       340 4.05032E+02-6.08176E+02-2.43051E+02
 -1       341 2.44971E+02-3.49791E+02-1.90269E+02
 -1       342-1.28937E+02-1.79834E+02-2.20120E+02
 -1       343 6.10489E+02-5.04095E+02 1.33030E+02
 -1       344-4.25469E+02-3.37802E+02 2.72899E+02
 -1       345 6.24224E+02-5.06033E+02-1.29166E+02
 -1       346-3.63627E+02-4.44676E+02-1.57605E+02
 -1       347-1.24762E+02-3.15432E+02 7.99321E+01
 -1       348-1.24246E+04-3.17577E+02 1.64509E+03
 -1       349-1.12408E+04 1.29876E+00 1.76914E+03
 -1       350-8.63198E+03 4.42669E+02 1.37868E+03
 -1       351-1.09876E+04 4.47149E+01-1.72437E+03
 -1       352-1.24261E+04-3.29904E+02-1.64010E+03
 -1       353-8.58065E+03 4.40502E+02-1.37135E+03
 -1       354 1.14800E+04-6.11451E+00-1.34037E+03
 -1       355 8.17316E+03 6.59576E+02-1.23933E+03
 -1       356 1.05051E+04 2.54459E+02-1.70168E+03
 -1       357 1.15157E+04 3.60687E+01 1.33088E+03
 -1       358 1.03848E+04-3.15742E+02 1.48494E+03
 -1       359 8.16636E+03 6.60833E+02 1.26593E+03
 -1       360-1.39815E+04-8.93442E+02-5.47264E+02
 -1       361-1.23385E+04-7.07582E+02-7.94173E+02
 -1       362-7.48615E+03-6.08170E+02-4.51581E+02
 -1       363-1.26440E+04-7.90705E+02 7.70854E+02
 -1       364-1.31184E+04 1.24135E+02 5.24214E+02
 -1       365-9.19051E+03-7.46522E+02 6.16294E+01
 -1       366-7.73753E+03-6.22724E+02 4.64147E+02
 -1       367-1.79611E+03 1.47481E+03 7.09414E+02
 -1       368-5.45431E+03 1.36759E+03 7.48534E+02
 -1       369-5.84188E+03 1.12101E+03 7.58961E+02
 -1       370 4.50514E+03 9.46419E+02 8.15354E+01
 -1       371 2.59176E+03 1.67575E+03-5.98597E+02
 -1       372 6.32684E+02 1.72807E+03 7.92476E+01
 -1       373 5.44707E+03 1.16649E+03-1.21241E+03
 -1       374 1.01455E+04 3.13202E+02 8.20527E+02
 -1       375 1.33649E+04-6.21627E+02 5.71915E+02
 -1       376 6.30263E+03-5.98578E+02 2.77821E+02
 -1       377 1.31235E+04 4.74834E+02-5.37851E+02
 -1       378 1.21579E+04-3.59816E+02-7.86351E+02
 -1       379 9.93458E+03-5.84803E+02-1.18311E+02
 -1       380 7.42358E+03-3.87767E+02-4.17667E+02
 -1       381-5.36281E+03 1.35737E+03-7.42406E+02
 -1       382-1.76477E+03 1.52600E+03-7.22647E+02
 -1       383-5.61216E+03 1.09966E+03-7.50797E+02
 -1       384 2.89573E+03 1.75539E+03 6.43564E+02
 -1       385 4.72364E+03 9.37459E+02-3.51090E+01
 -1       386 9.20386E+02 1.89636E+03-4.94389E+01
 -1       387 4.92976E+03 1.05397E+03 1.08998E+03
 -1       388 6.42871E+03 7.60561E+02 1.83442E+02
 -1       389 6.00731E+03 6.90095E+02 4.04585E+02
 -1       390 5.45034E+03 5.97004E+02-6.22126E+02
 -1       391 4.70165E+03 8.40334E+02-2.76275E+02
 -1       392 2.76449E+03 8.49866E+02-1.62188E+02
 -1       393 2.64391E+03 1.35035E+02-3.54764E+01
 -1       394-5.62758E+03 1.07785E+03-1.54835E+02
 -1       395-5.78674E+03 6.51668E+02-1.28087E+01
 -1       396-5.85277E+03 7.09658E+02 5.86851E+02
 -1       397-2.70219E+03 7.27440E+02 1.00853E+02
 -1       398 5.34977E+03 5.68213E+02 5.54060E+02
 -1       399 3.49254E+03 8.02158E+02 1.86001E+02
 -1       400 6.02127E+02 1.13246E+03 1.10523E+03
 -1       401-2.65764E+03 7.57209E+02-1.22261E+02
 -1       402-5.63980E+03 6.80644E+02-5.25353E+02
 -1       403 1.17300E+02 1.00254E+03-8.93206E+02
 -1       404 1.31564E+02 1.25030E+03 5.57115E+02
 -1       405 4.20988E+02 1.59572E+03-5.68626E+02
 -1       406 1.59821E-04-6.56378E-05 3.49985E-05
 -1       407 1.36997E-04-1.91870E-05-6.60691E-05
 -1       408 2.06172E-04 8.38838E-04-8.16759E-05
 -1       409 3.81646E-04 2.51768E-04 3.77508E-05
 -1       410 2.87569E-04 1.00986E-04 1.02059E-04
 -1       411-1.34695E-03-6.28911E-04 2.67705E-05
 -1       412 4.38947E-04 4.06228E-04-5.85883E-05
 -1       413 5.80030E-04 1.03287E-03 7.14676E-06
 -1       414-1.19083E-03-2.32621E-04-6.30734E-05
 -1       415-2.86280E-04-7.47863E-05 5.03460E-05
 -1       416 4.12893E-04 5.33927E-04-1.56006E-04
 -1       417-1.05244E-03-2.37097E-04-2.46056E-05
 -1       418 1.76165E-04 6.67237E-04 1.76147E-04
 -1       419-7.02967E-04-5.72658E-04 2.33477E-05
 -1       420 6.63463E-04 3.56053E-04-4.86536E-05
 -1       421 1.73976E+00 2.64260E+02 4.95162E-04
 -1       422 2.01541E+00 3.06178E+02 9.26925E-04
 -1       423 1.73656E+00 2.63477E+02 6.23589E-04
 -1       424 2.01550E+00 3.06178E+02-9.70486E-04
 -1       425 1.91448E+00 2.90776E+02-6.54234E-04
 -1       426 1.82740E+00 2.77294E+02-7.39694E-04
 -1       427 1.87406E+00 2.84274E+02-8.36589E-04
 -1       428 2.00027E+00 3.03663E+02-9.11386E-04
 -1       429 1.74851E+00 2.65574E+02-4.32106E-04
 -1       430 1.93027E+00 2.93070E+02 3.46077E-04
 -1       431 2.01679E+00 3.06180E+02 8.62826E-04
 -1       432 1.86452E+00 2.82831E+02 7.52659E-04
 -1       433 2.13817E+00 3.24667E+02-3.15155E-04
 -1       434 2.39125E+00 3.63048E+02-1.45113E-04
 -1       435 1.77270E+00 2.69086E+02-3.75692E-04
 -1       436 2.24857E+00 3.41424E+02 9.23168E-05
 -1       437 1.82095E+00 2.76526E+02 2.71132E-04
 -1       438 2.27679E+00 3.45551E+02 1.61826E-05
 -1       439 1.41210E+00 2.14354E+02 2.41156E-04
 -1       440 1.80194E+00 2.73206E+02 4.25174E-04
 -1       441 2.28002E+00 3.45541E+02 8.95255E-05
 -1       442 1.40782E+00 2.13572E+02 3.56529E-04
 -1       443 2.45159E+00 3.71523E+02-3.31678E-04
 -1       444 2.11908E+00 3.21242E+02-6.58562E-04
 -1       445 2.34253E+00 3.55090E+02-1.33627E-04
 -1       446 1.70584E+00 2.58652E+02-5.94190E-04
 -1       447 2.36010E+00 3.58186E+02 6.96527E-05
 -1       448 2.19163E+00 3.32759E+02 1.97248E-04
 -1       449 1.83387E+00 2.78069E+02 4.07389E-04
 -1       450 1.74942E+00 2.65571E+02-2.25945E-04
 -1       451 2.08929E+00 3.17235E+02-9.58047E-05
 -1       452 2.04653E+00 3.10364E+02-8.03271E-05
 -1       453 1.58215E+00 2.39951E+02-3.98375E-04
 -1       454 2.28460E+00 3.46239E+02-1.29156E-04
 -1       455 1.98552E+00 3.01001E+02-4.58130E-04
 -1       456 1.68493E+00 2.55606E+02-3.69750E-04
 -1       457 2.01969E+00 3.06176E+02 5.57794E-04
 -1       458 2.28241E+00 3.45880E+02 2.30031E-04
 -1       459 2.14297E+00 3.24837E+02 6.74272E-05
 -1       460 1.76638E+00 2.67830E+02 5.57219E-04
 -1       461 2.03990E+00 3.09269E+02 1.35320E-04
 -1       462 2.11765E+00 3.21010E+02-1.48412E-04
 -1       463 1.87966E+00 2.84966E+02-1.98174E-04
 -1       464 1.85460E+00 2.81280E+02-1.70993E-04
 -1       465 1.73111E+00 2.62532E+02-2.96695E-04
 -1       466 1.84876E+00 2.80266E+02-1.46848E-04
 -1       467 2.16401E+00 3.28029E+02 1.65875E-04
 -1       468 2.16061E+00 3.27552E+02-1.07874E-04
 -1       469 2.04912E+00 3.10725E+02 2.39015E-04
 -1       470 2.15017E+00 3.26020E+02 9.45939E-05
 -1       471 1.58304E+00 2.40087E+02 2.03805E-04
 -1       472 2.02031E+00 3.06387E+02 9.60973E-05
 -1       473 2.31863E+00 3.51682E+02 1.80333E-05
 -1       474 2.33707E+00 3.54357E+02-1.35091E-04
 -1       475 2.00177E+00 3.03560E+02-2.69720E-04
 -1       476 1.96764E+00 2.98341E+02-2.81142E-05
 -1       477 1.88003E+00 2.85007E+02-3.49020E-05
 -1       478 2.06974E+00 3.13821E+02-5.28382E-06
 -1       479 2.88466E-02 8.99994E-03-8.99320E-04
 -1       480 1.94062E-02 4.50701E-03-1.00543E-03
 -1       481 1.68650E-03 1.15183E-03 5.55424E-05
 -1       482 5.04842E-02 2.17706E-02-6.34515E-04
 -1       483 6.20086E-02 2.31580E-02 1.04251E-03
 -1       484 3.94826E-02 1.32964E-02-8.08863E-04
 -1       485 4.38537E-03 1.43000E-03 3.03307E-04
 -1       486 6.73361E-02 3.06985E-02 5.37542E-04
 -1       487 3.32819E-02 8.31376E-03-1.53078E-04
 -1       488 3.92976E-02 1.32344E-02-2.18931E-04
 -1       489 1.87176E-02 3.59232E-03 7.61017E-05
 -1       490 6.98034E-02 3.08682E-02-1.58958E-04
 -1       491 5.56075E-02 2.67300E-02-2.77430E-04
 -1       492 4.45503E-02 1.75532E-02-1.84076E-04
 -1       493 8.93109E-03 2.00154E-03 1.43448E-04
 -1       494 1.24577E-02 2.15335E-03-1.22089E-04
 -1       495 1.21261E-03 1.10869E-03-3.29651E-05
 -1       496 1.09504E-01 5.16533E-02 4.73412E-04
 -1       497 5.03732E-03 2.11640E-03 4.80252E-04
 -1       498 4.48907E-02 1.35582E-02 1.91504E-04
 -1       499 8.04073E-02 3.66701E-02 5.99376E-05
 -1       500 8.85665E-02 4.20552E-02 2.75036E-04
 -1       501 5.80257E-02 2.08410E-02 1.39881E-04
 -1       502 3.41560E-02 1.48700E-02 1.32062E-04
 -1       503 5.16002E-03-1.50095E-03-1.67890E-04
 -1       504 6.87301E-04 1.17100E-03-5.18963E-05
 -1       505 3.84062E-02 1.24355E-02 6.32762E-04
 -1       506 1.97026E-02 4.88214E-03 8.02805E-04
 -1       507 5.53815E-02 2.30530E-02 4.75521E-04
 -1       508 7.91250E-02 3.22525E-02 8.91559E-04
 -1       509 2.07589E-02 6.17469E-03-7.89146E-04
 -1       510 1.16564E-02 2.21778E-03 7.10814E-05
 -1       511 2.68543E-02 4.88074E-03-2.36616E-04
 -1       512 1.69727E-02 4.18810E-03-1.32957E-04
 -1       513 4.42019E-02 1.01931E-02 1.13255E-04
 -1       514 1.28100E-03 9.31452E-04 3.01759E-05
 -1       515 5.43512E-02 1.73426E-02-4.97427E-04
 -1       516 4.19001E-02 1.34924E-02 6.92914E-04
 -1       517 5.95403E-02 2.79112E-02 4.19987E-04
 -1       518 7.23263E-02 3.38300E-02-1.66564E-04
 -1       519 7.70040E-02 3.28883E-02-2.26277E-04
 -1       520 8.28398E-02 3.41744E-02-7.29191E-04
 -1       521 5.69672E-02 2.04190E-02-1.77059E-04
 -1       522 7.98116E-02 3.66573E-02-1.68966E-04
 -1       523 6.43686E-02 3.00210E-02-3.04617E-04
 -1       524 9.09807E-02 4.37448E-02-7.25278E-05
 -1       525 5.17139E-02 2.29158E-02 1.38977E-04
 -1       526 2.83897E-02 9.04411E-03-5.43873E-04
 -1       527 2.36187E-02 6.19723E-03-7.60691E-04
 -1       528 6.45921E-02 3.09514E-02-2.52214E-04
 -1       529 4.30582E-03 1.69651E-03 4.57624E-04
 -1       530 4.53465E-03 1.32751E-03-2.90731E-04
 -1       531 6.87615E-02 2.66758E-02 2.68303E-04
 -1       532 2.78309E-02 9.68275E-03 1.03619E-04
 -1       533 1.23282E-02 2.21004E-03-5.55676E-04
 -1       534 5.35540E-02 1.56362E-02-1.03014E-04
 -1       535 1.27988E-02 3.21020E-03-2.68365E-04
 -1       536 9.59127E-02 4.41622E-02 2.89269E-04
 -1       537 4.35977E-02 1.84727E-02-2.41044E-04
 -1       538 7.09659E-02 3.11640E-02 7.77734E-04
 -1       539 6.69242E-02 2.49979E-02-5.31051E-05
 -1       540 4.98489E-02 1.71785E-02 1.01354E-03
 -1       541 1.63549E-02 1.64477E-03 1.23388E-05
 -1       542 2.64555E-02 4.50212E-03 6.95181E-05
 -1       543 2.06469E-02 5.11549E-03 6.46127E-05
 -1       544 3.09850E-03-1.50256E-03 1.79310E-04
 -1       545 7.73400E-02 3.59464E-02 2.12323E-04
 -1       546 8.95349E-02 4.26568E-02 4.96379E-05
 -1       547 2.06762E-03 1.83754E-03-1.32100E-04
 -1       548 3.48393E-02 8.71025E-03 1.78872E-04
 -1       549 5.34144E-03 3.27678E-03 2.67495E-05
 -1       550 3.17226E-02 8.96436E-03 1.91295E-05
 -1       551 2.55950E-02 1.03961E-02-1.06097E-03
 -1       552 4.10557E-02 1.59684E-02 9.61513E-04
 -1       553 9.11311E-02 3.86701E-02-5.78400E-04
 -1       554 1.81839E-02 7.11407E-03 6.31968E-04
 -1       555 7.00202E-02 3.29959E-02-1.62519E-04
 -1       556 6.55943E-02 2.54998E-02-1.15869E-04
 -1       557 6.29252E-02 2.81133E-02-1.70499E-04
 -1       558 1.10058E-01 4.90471E-02 3.90088E-04
 -1       559 4.18996E-03 2.61073E-03 2.27724E-05
 -1       560 1.50463E-02 5.78480E-03 2.47137E-04
 -1       561 3.81023E-02 1.36790E-02 4.37968E-04
 -1       562 1.13519E-01 5.32716E-02-2.20006E-04
 -1       563 7.83602E-02 3.75454E-02-1.59909E-05
 -1       564 6.07079E-02 1.81855E-02-3.54893E-05
 -1       565 5.36113E-02 1.84432E-02 1.27879E-04
 -1       566 6.65782E-02 2.66120E-02-3.50654E-05
 -1       567 7.27909E-02 3.12919E-02-9.86899E-05
 -1       568 5.82514E-02 2.17412E-02 1.78769E-04
 -1       569 7.58735E-02 3.42367E-02 1.67246E-04
 -1       570 5.95899E-02 2.18362E-02-3.40429E-04
 -1       571 1.07694E-01 5.17261E-02-5.33532E-04
 -1       572 7.95401E-02 3.71282E-02 2.18800E-04
 -1       573 4.02252E-02 1.93365E-02 2.22270E-04
 -1       574 2.11503E-02 4.63713E-03-3.60460E-05
 -1       575 3.97041E-04 1.05991E-03 1.20395E-04
 -1       576 8.65270E-03 1.93090E-03-1.48381E-04
 -1       577 1.85502E-03 1.49509E-03 1.56086E-04
 -1       578 4.62746E-03 2.73688E-04 2.63891E-05
 -1       579 3.48851E-03-9.40722E-04 5.20143E-04
 -1       580 3.53647E-03-9.59689E-04-5.01407E-04
 -1       581 1.56991E-04 7.08360E-04 1.32949E-04
 -1       582 5.93634E-04 1.14226E-03-1.57621E-04
 -1       583 4.06867E-06 6.50887E-04-1.02697E-05
 -1       584 8.98717E-04-3.25156E-03-4.00207E-04
 -1       585-2.79915E-04-3.86889E-03-1.94935E-03
 -1       586 1.86554E-03-8.55786E-03-4.76196E-04
 -1       587-2.78723E-04-3.85838E-03 1.93452E-03
 -1       588 8.97696E-04-3.19458E-03 3.75491E-04
 -1       589 1.88561E-03-8.65601E-03 4.94042E-04
 -1       590 1.24713E+00-2.17820E+00-5.05420E-04
 -1       591 1.08537E+00-1.89666E+00-8.57153E-05
 -1       592 1.31172E+00-2.29588E+00-6.61471E-04
 -1       593 1.08760E+00-1.90025E+00 1.84914E-04
 -1       594 1.24662E+00-2.17740E+00 5.06208E-04
 -1       595 1.29622E+00-2.26878E+00 7.46298E-04
 -1       596 7.03192E-05-2.87889E-03 3.04996E-04
 -1       597 1.22101E-05-3.29359E-03 1.26856E-04
 -1       598 9.09937E-04-5.91451E-03 3.90551E-04
 -1       599 1.35085E-03-4.12813E-03-8.55277E-05
 -1       600 7.97892E-05-2.92416E-03-3.36115E-04
 -1       601 7.63686E-04-5.95625E-03-1.04063E-04
 -1       602 8.51521E-04-5.83935E-03-3.68452E-04
 -1       603 1.33097E+00-2.32720E+00 6.72722E-05
 -1       604 1.17843E+00-2.06058E+00 4.31685E-05
 -1       605 1.06638E+00-1.86611E+00 2.91603E-04
 -1       606 1.15290E+00-2.01519E+00-4.55509E-05
 -1       607 1.30304E+00-2.27892E+00 6.07212E-05
 -1       608 1.15325E+00-2.01854E+00-1.73657E-05
 -1       609 1.10169E+00-1.92773E+00-2.21991E-04
 -1       610 7.21640E-03-2.96555E-02 2.11141E-04
 -1       611 3.71578E-03-1.60989E-02 2.77083E-04
 -1       612-1.19067E-04-9.83021E-03 4.07242E-04
 -1       613 1.45693E-02-6.06672E-02 5.47333E-04
 -1       614 6.86107E-03-4.43907E-02 3.42867E-04
 -1       615 1.50466E-03-3.62585E-02 1.85584E-04
 -1       616 1.38442E-02-1.08449E-01 1.09332E-03
 -1       617 1.44883E-02-8.24458E-02 8.34410E-04
 -1       618 6.74045E-03-6.99855E-02 4.07427E-04
 -1       619 4.16403E-02-1.66184E-01 1.51458E-03
 -1       620 2.37468E-02-1.36231E-01 1.27458E-03
 -1       621 2.44885E-02-1.18654E-01 6.99290E-04
 -1       622 5.18905E-02-2.43056E-01 2.17886E-03
 -1       623 4.36368E-02-2.03165E-01 1.91928E-03
 -1       624 3.16255E-02-1.83724E-01 1.13145E-03
 -1       625 8.26338E-02-3.31053E-01 2.82581E-03
 -1       626 5.95084E-02-2.87092E-01 2.43137E-03
 -1       627 6.39730E-02-2.57997E-01 1.41995E-03
 -1       628 1.19050E-01-4.33368E-01 3.49528E-03
 -1       629 1.11244E-01-3.77152E-01 3.10440E-03
 -1       630 7.53310E-02-3.52865E-01 1.94904E-03
 -1       631 1.53003E-01-5.50961E-01 4.30260E-03
 -1       632 1.53534E-01-4.84383E-01 3.75654E-03
 -1       633 1.11960E-01-4.56042E-01 2.35074E-03
 -1       634 2.09834E-01-6.76660E-01 5.02794E-03
 -1       635 1.86038E-01-6.10316E-01 4.52577E-03
 -1       636 1.79119E-01-5.64213E-01 2.80495E-03
 -1       637 2.82789E-01-8.11389E-01 5.74072E-03
 -1       638 2.48974E-01-7.41050E-01 5.35117E-03
 -1       639 2.39276E-01-6.88994E-01 3.29271E-03
 -1       640 3.56325E-01-9.60698E-01 6.46195E-03
 -1       641 3.35618E-01-8.77245E-01 6.06724E-03
 -1       642 2.86500E-01-8.34369E-01 3.78930E-03
 -1       643 4.23064E-01-1.12490E+00 7.27933E-03
 -1       644 4.15057E-01-1.03129E+00 6.67330E-03
 -1       645 3.47780E-01-9.89446E-01 4.32155E-03
 -1       646 5.47950E-01-1.27131E+00 7.62207E-03
 -1       647 4.76397E-01-1.20036E+00 7.43100E-03
 -1       648 4.60525E-01-1.13534E+00 4.70256E-03
 -1       649 6.27654E-01-1.46151E+00 8.33394E-03
 -1       650 5.77581E-01-1.37025E+00 8.15503E-03
 -1       651 5.36334E-01-1.31476E+00 5.32345E-03
 -1       652 7.28888E-01-1.64978E+00 8.93941E-03
 -1       653 6.66152E-01-1.55356E+00 8.65288E-03
 -1       654 6.61321E-01-1.48423E+00 5.43259E-03
 -1       655 8.49573E-01-1.84644E+00 9.22448E-03
 -1       656 7.75753E-01-1.75891E+00 9.40331E-03
 -1       657 7.65892E-01-1.67668E+00 5.74840E-03
 -1       658 9.64733E-01-2.03933E+00 9.67968E-03
 -1       659 9.29536E-01-1.93269E+00 9.35093E-03
 -1       660 8.35619E-01-1.86994E+00 6.53010E-03
 -1       661 1.06249E+00-2.23748E+00 1.03635E-02
 -1       662 1.04521E+00-2.12514E+00 9.35257E-03
 -1       663 9.48683E-01-2.05831E+00 6.92651E-03
 -1       664 1.21646E+00-2.40668E+00 9.83159E-03
 -1       665 1.13196E+00-2.32646E+00 1.03725E-02
 -1       666 1.09709E+00-2.22914E+00 6.40664E-03
 -1       667 1.30094E+00-2.59086E+00 1.06954E-02
 -1       668 1.25151E+00-2.50446E+00 1.03675E-02
 -1       669 1.18123E+00-2.42149E+00 7.03118E-03
 -1       670 1.42725E+00-2.74178E+00 9.57969E-03
 -1       671 1.34157E+00-2.67775E+00 1.10480E-02
 -1       672 1.31458E+00-2.57584E+00 6.44078E-03
 -1       673 1.49247E+00-2.89521E+00 1.02681E-02
 -1       674 1.45748E+00-2.82244E+00 1.03664E-02
 -1       675 1.38536E+00-2.73993E+00 7.39132E-03
 -1       676 1.59165E+00-3.00989E+00 9.76472E-03
 -1       677 1.55221E+00-2.95197E+00 9.96301E-03
 -1       678 1.50898E+00-2.86276E+00 6.02261E-03
 -1       679 1.66352E+00-3.10922E+00 8.89121E-03
 -1       680 1.61746E+00-3.06652E+00 9.77141E-03
 -1       681 1.58676E+00-2.97661E+00 5.59855E-03
 -1       682 1.72356E+00-3.18450E+00 8.62938E-03
 -1       683 1.70566E+00-3.14587E+00 8.35135E-03
 -1       684 1.64353E+00-3.07069E+00 6.31886E-03
 -1       685 1.77158E+00-3.23935E+00 7.79136E-03
 -1       686 1.74530E+00-3.21605E+00 7.84897E-03
 -1       687 1.70936E+00-3.13826E+00 4.85221E-03
 -1       688 1.80830E+00-3.27601E+00 6.78260E-03
 -1       689 1.78876E+00-3.26079E+00 7.01431E-03
 -1       690 1.75210E+00-3.18774E+00 4.53511E-03
 -1       691 1.84042E+00-3.29716E+00 5.26453E-03
 -1       692 1.82534E+00-3.28821E+00 5.94693E-03
 -1       693 1.78659E+00-3.21957E+00 3.81637E-03
 -1       694 1.85912E+00-3.30682E+00 4.45187E-03
 -1       695 1.85321E+00-3.30233E+00 4.56340E-03
 -1       696 1.80937E+00-3.23869E+00 3.66366E-03
 -1       697 1.87444E+00-3.31192E+00 3.09767E-03
 -1       698 1.86572E+00-3.30930E+00 3.59261E-03
 -1       699 1.82847E+00-3.24613E+00 2.45891E-03
 -1       700 1.91878E+00-3.37422E+00 2.07192E-03
 -1       701 1.87436E+00-3.30231E+00 2.49475E-03
 -1       702 1.84775E+00-3.26321E+00 2.14161E-03
 -1       703 1.59514E+00-2.79632E+00 1.09842E-03
 -1       704 1.93741E+00-3.40060E+00 1.54681E-03
 -1       705 1.93717E+00-3.40581E+00 1.05582E-03
 -1       706 1.21145E+00-2.12291E+00 6.37340E-04
 -1       707 3.69042E-03-1.59696E-02-2.71495E-04
 -1       708 7.17349E-03-2.94945E-02-2.11854E-04
 -1       709-1.46965E-04-9.56082E-03-3.72671E-04
 -1       710 6.81121E-03-4.41034E-02-3.41349E-04
 -1       711 8.60876E-03-6.14092E-02-5.77245E-04
 -1       712 2.26895E-03-3.63989E-02-1.73788E-04
 -1       713 9.89353E-03-8.35542E-02-8.30406E-04
 -1       714 1.56904E-02-1.06798E-01-1.09042E-03
 -1       715 1.37751E-02-6.97356E-02-3.68104E-04
 -1       716 2.31988E-02-1.33510E-01-1.26831E-03
 -1       717 3.39754E-02-1.69062E-01-1.58261E-03
 -1       718 2.48865E-02-1.15539E-01-6.62250E-04
 -1       719 5.19947E-02-2.03230E-01-1.84748E-03
 -1       720 5.10283E-02-2.39291E-01-2.16094E-03
 -1       721 3.27199E-02-1.90429E-01-1.19988E-03
 -1       722 6.16957E-02-2.83813E-01-2.41384E-03
 -1       723 8.26302E-02-3.32007E-01-2.80711E-03
 -1       724 6.41655E-02-2.53223E-01-1.41177E-03
 -1       725 1.11235E-01-3.77517E-01-3.10786E-03
 -1       726 1.15628E-01-4.34157E-01-3.54748E-03
 -1       727 7.89302E-02-3.51846E-01-1.98686E-03
 -1       728 1.30091E-01-4.91936E-01-3.81900E-03
 -1       729 1.77901E-01-5.42274E-01-4.20409E-03
 -1       730 1.32308E-01-4.49415E-01-2.28672E-03
 -1       731 1.90220E-01-6.08514E-01-4.64634E-03
 -1       732 2.18422E-01-6.73628E-01-4.92299E-03
 -1       733 1.56467E-01-5.72062E-01-2.97950E-03
 -1       734 2.64996E-01-7.34728E-01-5.30829E-03
 -1       735 2.82320E-01-8.11374E-01-5.73483E-03
 -1       736 2.21042E-01-6.96319E-01-3.39119E-03
 -1       737 3.08617E-01-8.88479E-01-6.11807E-03
 -1       738 3.51472E-01-9.62421E-01-6.52538E-03
 -1       739 3.05761E-01-8.26454E-01-3.74974E-03
 -1       740 3.82179E-01-1.04557E+00-6.80349E-03
 -1       741 4.55733E-01-1.10521E+00-7.09052E-03
 -1       742 3.76769E-01-9.76725E-01-4.19705E-03
 -1       743 4.77384E-01-1.18422E+00-7.44516E-03
 -1       744 5.05545E-01-1.26946E+00-7.70906E-03
 -1       745 4.29081E-01-1.14801E+00-4.94425E-03
 -1       746 5.71310E-01-1.34687E+00-7.96261E-03
 -1       747 6.24000E-01-1.43713E+00-8.18922E-03
 -1       748 5.54659E-01-1.29326E+00-5.09706E-03
 -1       749 6.55335E-01-1.54265E+00-8.66858E-03
 -1       750 7.51591E-01-1.62528E+00-8.60281E-03
 -1       751 6.56359E-01-1.47246E+00-5.40217E-03
 -1       752 7.87689E-01-1.73577E+00-9.18508E-03
 -1       753 8.44903E-01-1.83619E+00-9.25155E-03
 -1       754 7.41592E-01-1.67626E+00-6.04059E-03
 -1       755 8.92462E-01-1.94551E+00-9.58547E-03
 -1       756 9.58745E-01-2.04168E+00-9.65363E-03
 -1       757 8.76916E-01-1.85216E+00-5.98508E-03
 -1       758 1.00474E+00-2.14332E+00-9.99630E-03
 -1       759 1.07302E+00-2.23346E+00-1.00406E-02
 -1       760 9.84594E-01-2.04305E+00-6.14599E-03
 -1       761 1.13843E+00-2.32389E+00-1.02678E-02
 -1       762 1.19555E+00-2.41488E+00-1.01973E-02
 -1       763 1.10634E+00-2.22605E+00-6.23981E-03
 -1       764 1.27210E+00-2.49513E+00-9.60393E-03
 -1       765 1.29973E+00-2.59123E+00-1.06173E-02
 -1       766 1.19288E+00-2.41497E+00-6.76494E-03
 -1       767 1.34794E+00-2.67579E+00-1.05833E-02
 -1       768 1.39552E+00-2.75434E+00-1.03676E-02
 -1       769 1.31727E+00-2.57578E+00-6.31517E-03
 -1       770 1.45311E+00-2.82428E+00-1.03729E-02
 -1       771 1.49622E+00-2.89365E+00-1.01476E-02
 -1       772 1.41499E+00-2.72986E+00-6.31094E-03
 -1       773 1.54805E+00-2.95369E+00-1.01673E-02
 -1       774 1.59002E+00-3.01099E+00-9.69923E-03
 -1       775 1.50906E+00-2.86278E+00-5.97926E-03
 -1       776 1.64118E+00-3.05887E+00-8.59075E-03
 -1       777 1.66022E+00-3.10904E+00-9.63154E-03
 -1       778 1.57117E+00-2.98219E+00-6.15588E-03
 -1       779 1.68589E+00-3.15156E+00-9.27602E-03
 -1       780 1.73232E+00-3.18129E+00-7.64306E-03
 -1       781 1.65111E+00-3.06722E+00-5.39175E-03
 -1       782 1.74970E+00-3.21451E+00-7.98774E-03
 -1       783 1.77431E+00-3.23927E+00-7.45842E-03
 -1       784 1.69370E+00-3.14116E+00-6.35030E-03
 -1       785 1.79970E+00-3.25806E+00-6.35938E-03
 -1       786 1.80990E+00-3.27575E+00-6.85525E-03
 -1       787 1.74245E+00-3.19091E+00-4.91314E-03
 -1       788 1.82521E+00-3.28807E+00-5.92317E-03
 -1       789 1.84018E+00-3.29691E+00-5.12598E-03
 -1       790 1.78701E+00-3.21915E+00-3.71105E-03
 -1       791 1.85307E+00-3.30220E+00-4.50815E-03
 -1       792 1.85921E+00-3.30705E+00-4.37621E-03
 -1       793 1.80962E+00-3.23820E+00-3.59224E-03
 -1       794 1.86645E+00-3.30920E+00-3.44212E-03
 -1       795 1.85489E+00-3.27641E+00-2.89224E-03
 -1       796 1.82895E+00-3.24641E+00-2.38692E-03
 -1       797 1.84090E+00-3.24434E+00-2.44578E-03
 -1       798 1.90805E+00-3.35518E+00-1.92360E-03
 -1       799 1.81893E+00-3.21345E+00-2.23487E-03
 -1       800 1.93926E+00-3.40406E+00-1.44293E-03
 -1       801 1.60508E+00-2.81380E+00-1.04757E-03
 -1       802 1.93368E+00-3.40049E+00-1.19069E-03
 -1       803 1.25437E+00-2.19813E+00-6.08913E-04
 -1       804 1.55393E+00-2.95023E+00 3.34036E-03
 -1       805 1.53738E+00-2.89317E+00 2.85300E-03
 -1       806 1.49941E+00-2.83693E+00 3.03230E-03
 -1       807 1.42995E+00-2.78726E+00 3.69076E-03
 -1       808 1.49134E+00-2.87552E+00 2.29860E-04
 -1       809 1.72683E+00-3.13634E+00 2.02902E-03
 -1       810 1.70839E+00-3.11532E+00 2.33872E-03
 -1       811 1.75863E+00-3.16407E+00 1.79691E-03
 -1       812 1.73668E+00-3.15444E+00 2.23493E-03
 -1       813 1.72168E+00-3.14906E+00 4.42412E-04
 -1       814 1.79812E+00-3.18060E+00-8.77492E-04
 -1       815 1.77129E+00-3.12424E+00-8.50632E-04
 -1       816 1.81832E+00-3.20055E+00-5.97969E-04
 -1       817 1.73825E+00-3.06477E+00 6.92938E-05
 -1       818 1.64067E+00-2.88241E+00-6.28797E-04
 -1       819 1.17516E+00-2.42127E+00 3.76066E-03
 -1       820 1.15749E+00-2.31956E+00 3.25744E-03
 -1       821 1.10308E+00-2.23082E+00 3.20994E-03
 -1       822 1.04809E+00-2.14047E+00 3.09010E-03
 -1       823 1.09491E+00-2.29100E+00-2.20910E-04
 -1       824 1.26618E+00-2.48538E+00-2.93300E-03
 -1       825 1.31621E+00-2.56529E+00-2.89458E-03
 -1       826 1.33611E+00-2.65265E+00-3.76073E-03
 -1       827 1.40949E+00-2.71163E+00-3.19373E-03
 -1       828 1.28553E+00-2.62575E+00-3.94335E-04
 -1       829 1.60415E+00-2.98816E+00-2.46515E-03
 -1       830 1.63306E+00-3.02755E+00-2.18764E-03
 -1       831 1.63201E+00-3.07345E+00-2.25676E-03
 -1       832 1.68481E+00-3.09087E+00-2.54420E-03
 -1       833 1.63118E+00-3.05147E+00-1.26962E-04
 -1       834 1.79022E+00-3.18313E+00-1.20811E-03
 -1       835 1.79465E+00-3.18139E+00-1.09999E-03
 -1       836 1.76403E+00-3.17593E+00-1.59133E-03
 -1       837 1.78218E+00-3.17867E+00-1.43208E-03
 -1       838 1.78295E+00-3.18243E+00-2.34426E-05
 -1       839 8.36918E-01-1.78031E+00-2.98308E-03
 -1       840 8.57838E-01-1.88063E+00-3.13954E-03
 -1       841 9.37423E-01-1.95722E+00-3.16594E-03
 -1       842 9.62558E-01-2.06391E+00-3.08131E-03
 -1       843 8.69191E-01-1.92948E+00-2.03195E-04
 -1       844 3.05273E-02-2.00191E-01 5.92853E-04
 -1       845 3.63924E-02-1.62817E-01 4.81393E-04
 -1       846 5.65965E-02-2.34374E-01 6.48219E-04
 -1       847 3.48366E-02-2.20292E-01 6.94240E-06
 -1       848 6.97024E-02-2.74549E-01 7.62992E-04
 -1       849 9.60545E-02-4.82153E-01 1.09584E-03
 -1       850 1.16877E-01-4.15233E-01 1.08351E-03
 -1       851 9.79974E-02-3.65451E-01 9.35447E-04
 -1       852 4.70288E-02-3.28321E-01 9.99820E-04
 -1       853 8.75300E-02-3.95728E-01 1.39327E-05
 -1       854 1.11488E-02-5.73476E-02-1.39992E-04
 -1       855 7.11692E-03-7.97243E-02-1.63609E-04
 -1       856 1.04903E-03-9.21102E-02-2.67172E-05
 -1       857 2.13508E-02-1.01395E-01-2.93376E-04
 -1       858 2.86485E-02-1.30189E-01-3.70094E-04
 -1       859 3.26948E-01-1.02346E+00 1.96231E-03
 -1       860 3.46289E-01-9.22246E-01 2.05366E-03
 -1       861 2.83753E-01-8.59650E-01 1.92252E-03
 -1       862 2.82659E-01-7.75755E-01 1.77962E-03
 -1       863 2.99137E-01-8.97317E-01 5.53677E-05
 -1       864 5.80042E-01-1.34020E+00 2.47923E-03
 -1       865 4.88367E-01-1.26225E+00 2.66985E-03
 -1       866 6.30927E-01-1.43018E+00 2.64949E-03
 -1       867 5.67145E-01-1.40656E+00-9.71945E-05
 -1       868 6.52407E-01-1.53379E+00 2.76041E-03
 -1       869 1.88641E-01-5.83100E-01 1.42975E-03
 -1       870 1.62895E-01-5.23929E-01 1.37558E-03
 -1       871 2.49833E-01-7.08433E-01 1.63724E-03
 -1       872 1.98949E-01-6.51539E-01 1.59483E-03
 -1       873 1.75165E-01-6.23559E-01 5.12364E-05
 -1       874-3.81310E-04-2.64364E-02 6.30120E-06
 -1       875 7.66041E-03-4.15440E-02-1.27336E-04
 -1       876 3.01382E-03-1.39070E-02-1.60056E-04
 -1       877-2.12360E-03-1.89971E-02-1.67786E-05
 -1       878 1.87196E-03-9.37376E-03-2.43763E-04
 -1       879 1.65698E-03-8.50217E-03-8.65398E-05
 -1       880-2.62899E-03-8.05643E-02 1.26738E-04
 -1       881 1.04796E-02-5.67666E-02 1.18834E-04
 -1       882 7.07378E-03-4.09657E-02 1.26531E-04
 -1       883 1.79049E-03-4.81710E-02 1.76945E-05
 -1       884 2.35076E-04-2.60685E-02 5.52667E-06
 -1       885 1.64579E+00-2.89106E+00 5.58653E-04
 -1       886 1.82283E+00-3.20781E+00 6.50491E-04
 -1       887 1.25805E+00-2.20692E+00 2.76056E-04
 -1       888 1.38308E+00-2.42890E+00 3.71878E-05
 -1       889 1.13617E+00-1.99122E+00 3.11796E-04
 -1       890 1.07059E+00-1.87611E+00 1.28684E-04
 -1       891 8.77043E-01-1.86648E+00 2.87821E-03
 -1       892 7.53363E-01-1.81053E+00 3.29344E-03
 -1       893 7.79087E-01-1.69413E+00 2.65054E-03
 -1       894 7.30434E-01-1.61300E+00 2.76383E-03
 -1       895 7.65882E-01-1.75365E+00-1.29188E-05
 -1       896 1.77878E+00-3.13681E+00 8.07919E-04
 -1       897 1.80591E+00-3.19785E+00 7.80272E-04
 -1       898 1.79502E+00-3.18289E+00 1.13014E-03
 -1       899 1.78993E+00-3.18309E+00 1.29672E-03
 -1       900 1.79228E+00-3.18050E+00 1.25362E-05
 -1       901 6.12784E-02-3.23438E-01-9.75826E-04
 -1       902 1.00234E-01-3.64405E-01-9.00324E-04
 -1       903 5.77462E-02-2.33783E-01-6.63134E-04
 -1       904 7.03620E-02-2.71847E-01-7.59404E-04
 -1       905 4.74337E-02-3.02726E-01 6.18070E-05
 -1       906 3.49915E-01-9.20601E-01-1.98492E-03
 -1       907 3.89325E-01-9.96253E-01-2.02789E-03
 -1       908 3.68852E-01-1.10781E+00-2.48419E-03
 -1       909 4.73078E-01-1.16458E+00-2.31105E-03
 -1       910 3.58353E-01-1.05765E+00-2.75365E-04
 -1       911 6.88705E-01-1.62391E+00-3.11528E-03
 -1       912 7.84798E-01-1.69316E+00-2.85203E-03
 -1       913 6.42298E-01-1.52869E+00-2.77675E-03
 -1       914 6.63414E-01-1.58359E+00-1.40835E-05
 -1       915 6.29694E-01-1.42671E+00-2.71283E-03
 -1       916 1.16977E-01-5.39968E-01-1.43250E-03
 -1       917 1.85344E-01-5.84192E-01-1.35665E-03
 -1       918 1.19341E-01-4.14464E-01-1.04013E-03
 -1       919 1.40492E-01-4.67627E-01-1.15617E-03
 -1       920 1.14338E-01-5.07881E-01-2.26779E-04
 -1       921 2.82328E-01-7.75866E-01-1.77968E-03
 -1       922 2.93422E-01-8.55940E-01-1.90668E-03
 -1       923 1.89704E-01-6.55336E-01-1.64662E-03
 -1       924 2.49660E-01-7.08452E-01-1.60474E-03
 -1       925 2.35048E-01-7.53942E-01 7.63860E-05
 -1       926-8.30121E-05-8.44944E-03 6.06993E-05
 -1       927 1.92437E-03-9.66877E-03 2.59353E-04
 -1       928 3.03206E-03-1.41771E-02 1.73780E-04
 -1       929 1.10002E+00-1.92803E+00-1.10571E-04
 -1       930 1.19820E+00-2.09999E+00-2.47815E-04
 -1       931 1.28774E+00-2.25897E+00-2.07035E-04
 -1       932 1.53680E+00-2.89332E+00-3.07344E-03
 -1       933 1.54997E+00-2.95250E+00-3.39228E-03
 -1       934 1.43556E+00-2.78534E+00-3.62734E-03
 -1       935 1.49915E+00-2.83677E+00-2.86016E-03
 -1       936 1.70611E+00-3.11627E+00-2.45511E-03
 -1       937 1.71789E+00-3.13990E+00-2.55475E-03
 -1       938 1.74580E+00-3.15103E+00-1.55183E-03
 -1       939 1.75893E+00-3.16358E+00-1.65306E-03
 -1       940 1.16565E+00-2.31577E+00-3.23841E-03
 -1       941 1.15546E+00-2.42861E+00-3.03067E-03
 -1       942 1.05686E+00-2.13737E+00-3.07330E-03
 -1       943 1.11158E+00-2.22755E+00-2.99260E-03
 -1       944 1.31290E+00-2.56533E+00 2.62964E-03
 -1       945 1.26372E+00-2.48642E+00 3.06844E-03
 -1       946 1.40625E+00-2.71213E+00 3.25006E-03
 -1       947 1.30070E+00-2.66707E+00 3.11462E-03
 -1       948 1.63726E+00-3.02674E+00 2.58302E-03
 -1       949 1.58550E+00-2.99619E+00 3.40431E-03
 -1       950 1.67856E+00-3.09471E+00 3.12907E-03
 -1       951 1.66357E+00-3.06194E+00 2.40046E-03
 -1       952 2.78323E-02-1.31327E-01 4.00728E-04
 -1       953 2.05754E-02-1.02646E-01 3.34915E-04
 -1       954 1.92226E-02-1.49566E-01-2.33051E-05
 -1       955 4.75913E-02-2.02224E-01-5.49658E-04
 -1       956 1.34027E-02-1.71591E-01-6.53452E-04
 -1       957 1.56653E+00-2.97464E+00-8.67401E-05
 -1       958 9.17846E-01-2.08395E+00 2.57285E-03
 -1       959 9.32355E-01-1.95928E+00 3.21563E-03
 -1       960 1.20348E+00-2.46050E+00 6.93100E-05
 -1       961 4.75066E-01-1.15775E+00 2.34872E-03
 -1       962 4.30707E-01-1.07580E+00 2.32427E-03
 -1       963 4.62644E-01-1.21613E+00 7.59982E-05
 -1       964 4.94982E-01-1.25879E+00-2.64891E-03
 -1       965 5.79165E-01-1.33780E+00-2.60260E-03
 -1       966 1.68526E+00-3.10800E+00 3.62950E-04
 -1       967 1.78184E+00-3.17891E+00 1.53733E-03
 -1       968 1.76761E+00-3.17519E+00 1.87656E-03
 -1       969 1.75893E+00-3.17159E+00 8.62264E-05
 -1       970 9.58061E-01-2.12354E+00-2.14294E-04
 -1       971 1.40126E+00-2.75759E+00-4.06856E-04
 -1       972 2.98736E-02 3.29254E-02-1.14247E-03
 -1       973 1.31854E-02 2.83879E-02 1.35646E-03
 -1       974-1.49284E-03 2.96089E-03 2.43930E-04
 -1       975 6.90595E-02 5.04467E-02-3.20012E-04
 -1       976 5.34577E-02 4.61016E-02-8.32039E-04
 -1       977 2.75636E-02 3.83847E-02 1.39201E-03
 -1       978 2.49219E-04 6.30934E-03 2.75001E-04
 -1       979 7.47538E-02 4.71490E-02-4.58810E-04
 -1       980 2.39899E-02 5.72560E-03-4.97729E-05
 -1       981 3.05461E-02 9.90605E-03-9.26838E-05
 -1       982 1.79282E-02 3.13927E-03 8.69607E-05
 -1       983 4.47398E-02 2.07832E-02-1.19708E-04
 -1       984 1.06671E-01 5.75901E-02 3.00271E-04
 -1       985 5.17535E-02 2.08851E-02-5.74005E-05
 -1       986 9.78516E-03 1.24349E-04 9.34246E-05
 -1       987 8.40649E-03 8.76288E-04-4.01409E-05
 -1       988-2.12033E-03 1.59698E-03 5.29548E-05
 -1       989 3.60767E-02 4.52697E-02 4.11324E-04
 -1       990 4.06182E-02 2.48691E-02-3.91936E-04
 -1       991-1.34275E-03 7.87604E-03-3.02854E-04
 -1       992 6.58358E-02 5.21189E-02 8.10249E-04
 -1       993 1.22903E-02 2.21219E-02 7.50789E-04
 -1       994 3.94352E-02 3.76230E-02 6.38789E-04
 -1       995 4.70562E-02 1.36886E-02 1.38989E-04
 -1       996 8.05667E-02 3.96252E-02-2.17551E-04
 -1       997 5.50225E-02 3.18613E-02 3.63636E-04
 -1       998 5.03228E-02 1.82832E-02 2.95744E-05
 -1       999 3.82485E-02 1.63048E-02-2.16878E-05
 -1      1000 4.45241E-03 2.13510E-03-2.02050E-04
 -1      1001-1.78508E-03-2.54949E-05-4.85211E-05
 -1      1002 1.19575E-02 1.46813E-03 4.01877E-05
 -1      1003 1.81968E-02 2.90006E-03 5.83575E-06
 -1      1004 2.56883E-02 5.32514E-03 1.27593E-05
 -1      1005 3.30726E-02 7.67122E-03 4.06369E-05
 -1      1006-1.79370E-03 2.83087E-03-1.03288E-04
 -1      1007 2.43152E-02 3.04718E-02-9.05762E-04
 -1      1008 7.99504E-03 2.01859E-02 1.04244E-03
 -1      1009 4.31609E-02 2.98094E-02 4.13750E-04
 -1      1010 8.18594E-02 4.90358E-02-3.00853E-04
 -1      1011 5.62837E-02 3.68246E-02-5.83763E-04
 -1      1012 4.11602E-02 3.12588E-02-5.52724E-04
 -1      1013 9.08242E-02 6.07305E-02-6.18957E-04
 -1      1014 5.94756E-02 2.19999E-02-1.40484E-04
 -1      1015 7.04794E-02 3.44540E-02 2.01876E-05
 -1      1016 5.54140E-02 2.83785E-02-4.97812E-05
 -1      1017 8.15215E-02 4.25746E-02-3.34880E-04
 -1      1018 5.05789E-02 2.33159E-02 1.56593E-04
 -1      1019 6.08371E-02 5.41147E-02 9.74149E-04
 -1      1020 1.21333E-02 2.06180E-02 4.47228E-05
 -1      1021 8.58485E-02 4.85683E-02 9.86210E-05
 -1      1022-9.10000E-04 6.17470E-03 2.07972E-04
 -1      1023 6.14194E-04 1.02225E-02 2.36318E-04
 -1      1024 3.87739E-02 1.53772E-02 1.58079E-05
 -1      1025 3.45224E-02 1.13408E-02 3.68279E-05
 -1      1026 2.80673E-03 1.26287E-02-4.92376E-04
 -1      1027 1.95593E-02 2.18365E-02 8.75790E-04
 -1      1028 3.11875E-02 8.65887E-03-5.87146E-05
 -1      1029 7.78582E-02 5.41799E-02-6.16228E-04
 -1      1030 2.98153E-02 1.27622E-02-1.02942E-04
 -1      1031 2.35849E-03 1.49022E-02 4.44472E-04
 -1      1032 3.80479E-02 3.70222E-02-1.08033E-03
 -1      1033 1.24710E-02 1.79493E-02 7.56184E-04
 -1      1034 1.40944E-02 1.69781E-03 5.34941E-06
 -1      1035 1.93890E-02 2.73400E-03 3.57173E-05
 -1      1036 2.23339E-02 6.27231E-03 7.45078E-05
 -1      1037 3.04331E-03 1.99079E-03 3.09664E-04
 -1      1038 5.54543E-02 2.85899E-02-1.12323E-04
 -1      1039 8.12622E-02 4.44863E-02 1.43202E-04
 -1      1040-1.49461E-03 3.20655E-03 1.33148E-04
 -1      1041 2.22346E-02 3.81568E-03 1.91093E-07
 -1      1042-7.89895E-04 5.80540E-03 1.81053E-04
 -1      1043 2.90418E-02 7.50562E-03 4.45244E-05
 -1      1044 1.37659E-02 2.15062E-02 3.64511E-04
 -1      1045 1.01969E-02 2.15390E-02-5.58573E-04
 -1      1046 2.55225E-02 3.11164E-02-5.60179E-04
 -1      1047 6.63260E-04 8.51149E-03-4.15009E-04
 -1      1048 5.27399E-02 4.11630E-02 5.29831E-04
 -1      1049 7.96980E-02 5.05712E-02 1.07596E-04
 -1      1050 7.23151E-02 5.88581E-02-6.92843E-04
 -1      1051 4.65988E-02 4.48011E-02-3.56143E-05
 -1      1052 3.96557E-03 1.57019E-02-1.85394E-04
 -1      1053 2.70863E-02 3.55996E-02-8.07470E-04
 -1      1054 6.80854E-02 3.89641E-02 3.40617E-04
 -1      1055 4.77425E-02 1.47013E-02-1.66900E-04
 -1      1056 4.72526E-02 1.62390E-02 1.52081E-04
 -1      1057 8.12608E-02 5.38666E-02 1.29246E-03
 -1      1058 5.82585E-02 2.41518E-02-8.23538E-05
 -1      1059 6.35424E-02 2.87012E-02-6.07584E-05
 -1      1060 5.14799E-02 1.94961E-02 1.40681E-04
 -1      1061 7.75525E-02 5.74757E-02 9.73649E-05
 -1      1062 3.81035E-02 4.18062E-02 4.52087E-05
 -1      1063 6.70200E-02 3.17008E-02 2.33434E-04
 -1      1064 9.39542E-02 5.67559E-02-3.11402E-04
 -1      1065 7.03290E-02 3.51737E-02 2.30587E-04
 -1      1066 4.78314E-02 2.61189E-02 2.38824E-04
 -1      1067 2.41779E-02 4.21732E-03 5.51068E-05
 -1      1068-1.56638E-03-1.35206E-04 5.70776E-06
 -1      1069 9.96054E-03 1.49867E-04-8.05293E-05
 -1      1070-1.71493E-03 1.30274E-03 9.35039E-05
 -1      1071 3.89243E-03 5.58737E-04 1.58650E-05
 -1      1072 2.95090E-03 1.42196E-03 7.34589E-04
 -1      1073 3.90442E-03 1.58976E-03-7.49176E-04
 -1      1074-1.10656E-03 1.28505E-04-7.26991E-06
 -1      1075-1.58362E-03-1.79195E-04 3.49973E-05
 -1      1076-1.24692E-03 9.74034E-04-4.19998E-05
 -1      1077-8.52321E-04 4.40846E-03-2.53242E-03
 -1      1078 1.67799E-04 3.75491E-03-5.44186E-04
 -1      1079 1.52419E-03 8.64226E-03-2.26848E-05
 -1      1080-9.72228E-04 3.14614E-03 7.31271E-04
 -1      1081-9.93766E-04 4.57194E-03 2.48085E-03
 -1      1082 1.54759E-03 8.71762E-03 6.09580E-05
 -1      1083-1.08433E+00 1.89636E+00 3.38138E-04
 -1      1084-1.24495E+00 2.17783E+00 5.86567E-04
 -1      1085-1.31063E+00 2.29625E+00 6.60208E-04
 -1      1086-1.24436E+00 2.17692E+00-6.60489E-04
 -1      1087-1.08703E+00 1.90029E+00-3.79070E-04
 -1      1088-1.29564E+00 2.26918E+00-6.61774E-04
 -1      1089-1.11642E-03 3.15053E-03 2.15094E-04
 -1      1090 3.43163E-04 3.90381E-03 2.87854E-04
 -1      1091 4.42292E-04 5.91839E-03 4.86111E-04
 -1      1092-1.02389E-03 2.96536E-03-5.25336E-04
 -1      1093 2.78793E-04 4.24982E-03-1.59884E-04
 -1      1094 3.19040E-04 6.00418E-03-1.13708E-04
 -1      1095 5.09517E-04 5.92543E-03-4.70413E-04
 -1      1096-1.17704E+00 2.06006E+00-1.76104E-04
 -1      1097-1.33020E+00 2.32703E+00-8.73606E-05
 -1      1098-1.06457E+00 1.86563E+00-2.20506E-04
 -1      1099-1.30162E+00 2.27814E+00 5.43668E-05
 -1      1100-1.15249E+00 2.01514E+00 1.22508E-04
 -1      1101-1.15103E+00 2.01780E+00-3.10517E-05
 -1      1102-1.09956E+00 1.92708E+00 2.13997E-04
 -1      1103 2.43564E-03 1.62255E-02-2.19572E-04
 -1      1104 1.26754E-03 2.98668E-02-6.13801E-04
 -1      1105-3.73130E-04 9.55604E-03 2.76062E-04
 -1      1106 4.44204E-03 4.56256E-02-5.09454E-04
 -1      1107-7.74642E-04 6.21500E-02-5.72667E-04
 -1      1108-9.59206E-04 3.59182E-02-4.09468E-04
 -1      1109-5.17845E-03 8.34661E-02-5.89180E-04
 -1      1110-9.26967E-05 1.11198E-01-8.01407E-04
 -1      1111 1.53199E-03 7.15021E-02-3.86859E-04
 -1      1112-9.68812E-03 1.38897E-01-9.84782E-04
 -1      1113-9.54439E-03 1.72988E-01-1.16761E-03
 -1      1114-1.22944E-02 1.20534E-01-5.97173E-04
 -1      1115-2.35898E-02 2.07811E-01-1.41472E-03
 -1      1116-2.54010E-02 2.49819E-01-1.65135E-03
 -1      1117-2.59531E-02 1.84889E-01-8.89296E-04
 -1      1118-4.41105E-02 2.91154E-01-1.95930E-03
 -1      1119-5.76100E-02 3.37709E-01-2.18665E-03
 -1      1120-4.53032E-02 2.62431E-01-1.10312E-03
 -1      1121-7.80571E-02 3.86478E-01-2.48731E-03
 -1      1122-9.30171E-02 4.40862E-01-2.87218E-03
 -1      1123-5.71731E-02 3.58216E-01-1.55507E-03
 -1      1124-1.18188E-01 4.94975E-01-3.06453E-03
 -1      1125-1.31981E-01 5.57702E-01-3.52852E-03
 -1      1126-9.27429E-02 4.62388E-01-1.93246E-03
 -1      1127-1.44131E-01 6.25590E-01-3.85879E-03
 -1      1128-1.83055E-01 6.85722E-01-4.13757E-03
 -1      1129-1.54193E-01 5.71672E-01-2.30521E-03
 -1      1130-1.99127E-01 7.60533E-01-4.54469E-03
 -1      1131-2.44365E-01 8.25700E-01-4.82085E-03
 -1      1132-1.99696E-01 7.03072E-01-2.81233E-03
 -1      1133-2.86408E-01 8.96222E-01-5.06448E-03
 -1      1134-3.18970E-01 9.75116E-01-5.47117E-03
 -1      1135-2.46188E-01 8.50664E-01-3.25313E-03
 -1      1136-3.65882E-01 1.05054E+00-5.46321E-03
 -1      1137-3.78615E-01 1.14497E+00-6.04603E-03
 -1      1138-3.20337E-01 1.00078E+00-3.60123E-03
 -1      1139-4.36659E-01 1.21738E+00-6.10115E-03
 -1      1140-4.64510E-01 1.30965E+00-6.24631E-03
 -1      1141-4.26126E-01 1.14832E+00-4.04539E-03
 -1      1142-5.29910E-01 1.39202E+00-6.36979E-03
 -1      1143-5.62038E-01 1.49343E+00-6.58981E-03
 -1      1144-5.17786E-01 1.32092E+00-3.90474E-03
 -1      1145-6.29022E-01 1.57097E+00-6.42546E-03
 -1      1146-6.85543E-01 1.67066E+00-6.52687E-03
 -1      1147-6.18148E-01 1.50164E+00-4.39446E-03
 -1      1148-7.25608E-01 1.78601E+00-6.59177E-03
 -1      1149-8.00407E-01 1.87047E+00-6.29643E-03
 -1      1150-7.14979E-01 1.70019E+00-4.15515E-03
 -1      1151-8.68156E-01 1.96091E+00-5.96836E-03
 -1      1152-9.19673E-01 2.06127E+00-5.97213E-03
 -1      1153-7.99418E-01 1.89089E+00-4.21982E-03
 -1      1154-9.88262E-01 2.15079E+00-5.19464E-03
 -1      1155-1.03150E+00 2.25621E+00-5.70015E-03
 -1      1156-9.16598E-01 2.07810E+00-3.88366E-03
 -1      1157-1.07218E+00 2.36271E+00-5.43902E-03
 -1      1158-1.14889E+00 2.44051E+00-5.16482E-03
 -1      1159-1.05648E+00 2.24707E+00-2.87089E-03
 -1      1160-1.18813E+00 2.54208E+00-5.06410E-03
 -1      1161-1.24603E+00 2.62637E+00-4.80555E-03
 -1      1162-1.16832E+00 2.42590E+00-2.70505E-03
 -1      1163-1.31609E+00 2.69611E+00-4.26188E-03
 -1      1164-1.36915E+00 2.77150E+00-3.51843E-03
 -1      1165-1.28008E+00 2.59118E+00-1.96990E-03
 -1      1166-1.42816E+00 2.83679E+00-3.32596E-03
 -1      1167-1.47169E+00 2.90762E+00-3.02320E-03
 -1      1168-1.35895E+00 2.76254E+00-2.81698E-03
 -1      1169-1.52437E+00 2.96356E+00-2.85155E-03
 -1      1170-1.55849E+00 3.02859E+00-2.62620E-03
 -1      1171-1.45869E+00 2.89093E+00-2.47595E-03
 -1      1172-1.60436E+00 3.07387E+00-2.61421E-03
 -1      1173-1.63790E+00 3.12147E+00-2.04486E-03
 -1      1174-1.54299E+00 3.00348E+00-2.36471E-03
 -1      1175-1.67653E+00 3.15518E+00-1.74858E-03
 -1      1176-1.70240E+00 3.19653E+00-2.71545E-03
 -1      1177-1.61849E+00 3.08717E+00-1.93225E-03
 -1      1178-1.72673E+00 3.23241E+00-2.71993E-03
 -1      1179-1.75630E+00 3.24903E+00-2.04953E-03
 -1      1180-1.68807E+00 3.14234E+00-2.81259E-04
 -1      1181-1.77676E+00 3.27341E+00-2.67416E-03
 -1      1182-1.79847E+00 3.28309E+00-2.02564E-03
 -1      1183-1.73759E+00 3.18975E+00-7.29775E-04
 -1      1184-1.81449E+00 3.29816E+00-2.23170E-03
 -1      1185-1.83057E+00 3.30548E+00-2.20261E-03
 -1      1186-1.77426E+00 3.22206E+00-6.59168E-04
 -1      1187-1.84303E+00 3.30738E+00-1.94488E-03
 -1      1188-1.85304E+00 3.31078E+00-1.60374E-03
 -1      1189-1.80264E+00 3.23976E+00-7.14414E-04
 -1      1190-1.86231E+00 3.31356E+00-1.86534E-03
 -1      1191-1.86989E+00 3.31441E+00-1.45556E-03
 -1      1192-1.82286E+00 3.24712E+00-9.72380E-04
 -1      1193-1.87114E+00 3.30541E+00-1.49524E-03
 -1      1194-1.91576E+00 3.37553E+00-1.13019E-03
 -1      1195-1.84470E+00 3.26393E+00-7.12901E-04
 -1      1196-1.93587E+00 3.40216E+00-1.12666E-03
 -1      1197-1.59388E+00 2.79713E+00-7.54201E-04
 -1      1198-1.93494E+00 3.40548E+00-8.47461E-04
 -1      1199-1.21051E+00 2.12274E+00-4.34730E-04
 -1      1200 1.25724E-03 2.97300E-02 6.23854E-04
 -1      1201 2.42838E-03 1.60982E-02 2.30562E-04
 -1      1202-2.10195E-04 9.27917E-03-2.23259E-04
 -1      1203-7.16757E-05 6.23593E-02 5.98309E-04
 -1      1204 4.44278E-03 4.53430E-02 5.03188E-04
 -1      1205-1.33421E-03 3.60271E-02 3.82282E-04
 -1      1206-9.53789E-03 1.07463E-01 7.79069E-04
 -1      1207 2.37580E-03 8.57580E-02 6.37063E-04
 -1      1208-4.39483E-03 7.07168E-02 3.35904E-04
 -1      1209-9.62406E-03 1.74311E-01 1.18039E-03
 -1      1210-1.12371E-02 1.35559E-01 8.76985E-04
 -1      1211-4.66001E-03 1.19488E-01 5.55976E-04
 -1      1212-3.45595E-02 2.43087E-01 1.63399E-03
 -1      1213-2.36739E-02 2.09617E-01 1.45202E-03
 -1      1214-2.57288E-02 1.91565E-01 9.23253E-04
 -1      1215-5.82637E-02 3.38434E-01 2.24416E-03
 -1      1216-5.07150E-02 2.86120E-01 1.81573E-03
 -1      1217-3.34006E-02 2.61293E-01 1.12978E-03
 -1      1218-9.09012E-02 4.41411E-01 2.83787E-03
 -1      1219-6.35859E-02 3.92046E-01 2.56410E-03
 -1      1220-7.44959E-02 3.52135E-01 1.45578E-03
 -1      1221-1.41491E-01 5.53818E-01 3.52160E-03
 -1      1222-9.95412E-02 5.02208E-01 3.14388E-03
 -1      1223-1.09521E-01 4.55866E-01 1.80836E-03
 -1      1224-1.90898E-01 6.82400E-01 4.17448E-03
 -1      1225-1.59954E-01 6.18674E-01 3.70018E-03
 -1      1226-1.35540E-01 5.79367E-01 2.39976E-03
 -1      1227-2.44885E-01 8.25296E-01 4.79499E-03
 -1      1228-2.13058E-01 7.54087E-01 4.44326E-03
 -1      1229-1.84848E-01 7.09942E-01 2.84541E-03
 -1      1230-3.00354E-01 9.84069E-01 5.40147E-03
 -1      1231-2.64643E-01 9.06842E-01 5.15438E-03
 -1      1232-2.62169E-01 8.42985E-01 3.07217E-03
 -1      1233-4.06108E-01 1.12510E+00 5.96320E-03
 -1      1234-3.54545E-01 1.05646E+00 5.64291E-03
 -1      1235-3.44103E-01 9.88916E-01 3.49631E-03
 -1      1236-4.58542E-01 1.29148E+00 6.24906E-03
 -1      1237-4.36769E-01 1.20108E+00 5.80849E-03
 -1      1238-4.00524E-01 1.16033E+00 3.97409E-03
 -1      1239-5.72231E-01 1.46067E+00 6.32699E-03
 -1      1240-5.21792E-01 1.36921E+00 6.31981E-03
 -1      1241-5.03207E-01 1.31558E+00 4.40319E-03
 -1      1242-6.85078E-01 1.65556E+00 6.44011E-03
 -1      1243-6.34605E-01 1.55119E+00 6.24265E-03
 -1      1244-5.81971E-01 1.50815E+00 4.28269E-03
 -1      1245-7.77158E-01 1.87199E+00 6.68585E-03
 -1      1246-7.52329E-01 1.75078E+00 5.77291E-03
 -1      1247-6.93156E-01 1.70036E+00 4.26649E-03
 -1      1248-9.15198E-01 2.06418E+00 5.94814E-03
 -1      1249-8.56388E-01 1.96443E+00 6.13237E-03
 -1      1250-8.32234E-01 1.87034E+00 4.11384E-03
 -1      1251-1.03144E+00 2.25606E+00 5.76759E-03
 -1      1252-9.55197E-01 2.17288E+00 6.05479E-03
 -1      1253-9.45269E-01 2.05804E+00 2.79924E-03
 -1      1254-1.13137E+00 2.45317E+00 5.21568E-03
 -1      1255-1.07187E+00 2.36252E+00 5.51206E-03
 -1      1256-1.05299E+00 2.24795E+00 2.46347E-03
 -1      1257-1.26429E+00 2.61120E+00 4.04520E-03
 -1      1258-1.20628E+00 2.52936E+00 4.81405E-03
 -1      1259-1.16881E+00 2.42687E+00 2.44608E-03
 -1      1260-1.36936E+00 2.77188E+00 3.96235E-03
 -1      1261-1.32749E+00 2.68570E+00 3.37874E-03
 -1      1262-1.25586E+00 2.60989E+00 2.98786E-03
 -1      1263-1.47730E+00 2.90260E+00 3.05992E-03
 -1      1264-1.40678E+00 2.85601E+00 3.96460E-03
 -1      1265-1.38074E+00 2.74213E+00 1.41037E-03
 -1      1266-1.55630E+00 3.03087E+00 2.70342E-03
 -1      1267-1.51294E+00 2.97424E+00 2.86819E-03
 -1      1268-1.45477E+00 2.89443E+00 2.65809E-03
 -1      1269-1.63682E+00 3.12449E+00 2.71735E-03
 -1      1270-1.60718E+00 3.07071E+00 2.36969E-03
 -1      1271-1.54311E+00 3.00302E+00 2.35262E-03
 -1      1272-1.70317E+00 3.19622E+00 1.92489E-03
 -1      1273-1.66463E+00 3.17177E+00 2.79593E-03
 -1      1274-1.62383E+00 3.08097E+00 1.09222E-03
 -1      1275-1.75739E+00 3.24700E+00 1.71867E-03
 -1      1276-1.73432E+00 3.22085E+00 2.23985E-03
 -1      1277-1.68225E+00 3.15544E+00 1.95628E-03
 -1      1278-1.79974E+00 3.27904E+00 1.63759E-03
 -1      1279-1.78153E+00 3.26276E+00 1.93200E-03
 -1      1280-1.73365E+00 3.19945E+00 1.48215E-03
 -1      1281-1.83062E+00 3.30236E+00 1.85347E-03
 -1      1282-1.81650E+00 3.29229E+00 1.90376E-03
 -1      1283-1.77268E+00 3.22859E+00 1.44657E-03
 -1      1284-1.85328E+00 3.30956E+00 1.44082E-03
 -1      1285-1.84256E+00 3.31039E+00 1.98737E-03
 -1      1286-1.80220E+00 3.24107E+00 8.05857E-04
 -1      1287-1.84994E+00 3.27845E+00 1.26522E-03
 -1      1288-1.86175E+00 3.30979E+00 1.69711E-03
 -1      1289-1.82344E+00 3.25013E+00 1.19311E-03
 -1      1290-1.90494E+00 3.35620E+00 1.03437E-03
 -1      1291-1.83735E+00 3.24568E+00 1.36428E-03
 -1      1292-1.81733E+00 3.21554E+00 9.70762E-04
 -1      1293-1.60431E+00 2.81465E+00 7.81179E-04
 -1      1294-1.93671E+00 3.40463E+00 1.06399E-03
 -1      1295-1.93273E+00 3.40076E+00 7.05040E-04
 -1      1296-1.25319E+00 2.19780E+00 3.03606E-04
 -1      1297-1.49154E+00 2.92039E+00-1.22381E-03
 -1      1298-1.54363E+00 2.95634E+00-5.77860E-04
 -1      1299-1.40619E+00 2.80459E+00-1.24481E-03
 -1      1300-1.46212E+00 2.85447E+00-7.69218E-04
 -1      1301-1.48897E+00 2.87444E+00 1.95675E-04
 -1      1302-1.68936E+00 3.12593E+00-7.33693E-04
 -1      1303-1.71811E+00 3.13127E+00-9.99937E-05
 -1      1304-1.73674E+00 3.14804E+00-1.05510E-03
 -1      1305-1.74676E+00 3.17085E+00-8.59947E-04
 -1      1306-1.72632E+00 3.14269E+00-9.04478E-04
 -1      1307-1.76933E+00 3.12621E+00 3.78629E-04
 -1      1308-1.79544E+00 3.18312E+00 6.56089E-04
 -1      1309-1.73668E+00 3.06403E+00-1.50445E-04
 -1      1310-1.81590E+00 3.20065E+00 3.99937E-04
 -1      1311-1.63950E+00 2.88244E+00 2.08883E-04
 -1      1312-1.12329E+00 2.33325E+00-1.10346E-03
 -1      1313-1.15114E+00 2.43723E+00-1.71357E-03
 -1      1314-1.02230E+00 2.15042E+00-1.42088E-03
 -1      1315-1.04124E+00 2.26361E+00-1.80250E-03
 -1      1316-1.09848E+00 2.28684E+00 1.12522E-04
 -1      1317-1.20652E+00 2.51773E+00-1.65637E-03
 -1      1318-1.27511E+00 2.58475E+00-9.16149E-04
 -1      1319-1.30608E+00 2.67378E+00-1.63673E-03
 -1      1320-1.37446E+00 2.72744E+00-7.31961E-04
 -1      1321-1.30839E+00 2.61354E+00 1.68277E-04
 -1      1322-1.56976E+00 3.00891E+00-1.18444E-03
 -1      1323-1.60451E+00 3.04510E+00-1.41227E-03
 -1      1324-1.65439E+00 3.05356E+00-1.00813E-03
 -1      1325-1.66307E+00 3.10369E+00-8.15744E-04
 -1      1326-1.63091E+00 3.04869E+00 6.21094E-05
 -1      1327-1.78937E+00 3.18249E+00 1.45186E-04
 -1      1328-1.78389E+00 3.18743E+00 5.99094E-04
 -1      1329-1.77320E+00 3.18472E+00 5.65865E-04
 -1      1330-1.76274E+00 3.17460E+00 5.24406E-04
 -1      1331-1.77927E+00 3.18180E+00-1.34770E-04
 -1      1332-8.19893E-01 1.90013E+00 1.92513E-03
 -1      1333-8.28745E-01 1.77711E+00 1.99509E-03
 -1      1334-9.89878E-01 2.04282E+00 1.83429E-03
 -1      1335-8.74141E-01 1.98854E+00 1.91092E-03
 -1      1336-8.75653E-01 1.92400E+00 5.00411E-04
 -1      1337-2.35270E-02 1.65172E-01-3.73699E-04
 -1      1338-2.06427E-02 2.03181E-01-4.39732E-04
 -1      1339-3.70620E-02 2.19334E-01-4.35906E-05
 -1      1340-2.92355E-02 2.41345E-01-5.53779E-04
 -1      1341-4.84773E-02 2.79963E-01-5.60538E-04
 -1      1342-8.18995E-02 4.26542E-01-8.94037E-04
 -1      1343-1.00254E-01 4.80937E-01-9.45929E-04
 -1      1344-4.91835E-02 3.28315E-01-7.74815E-04
 -1      1345-7.68625E-02 3.71399E-01-7.65718E-04
 -1      1346-9.13724E-02 3.93746E-01 1.01714E-04
 -1      1347-9.24172E-03 7.90223E-02 2.30313E-04
 -1      1348 1.92770E-03 5.92897E-02 2.16164E-04
 -1      1349-2.77596E-03 1.05055E-01 2.46812E-04
 -1      1350-1.33583E-02 8.97746E-02-1.15900E-04
 -1      1351-6.71848E-03 1.34714E-01 3.02645E-04
 -1      1352-2.95825E-01 9.43587E-01-1.70790E-03
 -1      1353-3.32782E-01 1.02019E+00-1.77581E-03
 -1      1354-2.25245E-01 7.98849E-01-1.56611E-03
 -1      1355-2.77888E-01 8.61123E-01-1.59840E-03
 -1      1356-3.04448E-01 8.93193E-01 1.00884E-04
 -1      1357-4.64865E-01 1.27210E+00-2.07044E-03
 -1      1358-5.64209E-01 1.34380E+00-2.03411E-03
 -1      1359-5.74910E-01 1.39945E+00-1.83759E-04
 -1      1360-6.15063E-01 1.43222E+00-1.86751E-03
 -1      1361-6.15152E-01 1.55122E+00-2.14695E-03
 -1      1362-1.60562E-01 5.22713E-01-1.17259E-03
 -1      1363-1.47315E-01 5.97756E-01-1.18670E-03
 -1      1364-1.92494E-01 6.52126E-01-1.28978E-03
 -1      1365-1.95412E-01 7.29735E-01-1.43714E-03
 -1      1366-1.79273E-01 6.20506E-01 3.17763E-05
 -1      1367 2.62771E-03 4.28641E-02 1.55084E-04
 -1      1368-1.36463E-03 2.57896E-02 1.07056E-04
 -1      1369-2.04198E-03 1.82988E-02-3.01215E-06
 -1      1370 2.07765E-03 1.42520E-02-8.91580E-05
 -1      1371 1.06247E-03 8.68958E-03-7.89713E-05
 -1      1372 1.26843E-03 9.58965E-03-2.48227E-04
 -1      1373 2.26370E-03 5.87473E-02-1.96317E-04
 -1      1374 7.30409E-04 8.10406E-02-2.05333E-04
 -1      1375-2.95645E-03 4.76729E-02 1.35429E-05
 -1      1376 2.89846E-03 4.22978E-02-1.62305E-04
 -1      1377-1.67969E-03 2.53839E-02-1.45243E-04
 -1      1378-1.82129E+00 3.20894E+00-4.92048E-04
 -1      1379-1.64337E+00 2.89083E+00-1.69173E-04
 -1      1380-1.38153E+00 2.42812E+00-1.27643E-04
 -1      1381-1.25734E+00 2.20750E+00-2.59326E-04
 -1      1382-1.13570E+00 1.99142E+00-2.97550E-04
 -1      1383-1.07020E+00 1.87634E+00-8.24737E-05
 -1      1384-1.54654E+00 2.95260E+00 4.76833E-04
 -1      1385-1.49237E+00 2.91977E+00 1.02932E-03
 -1      1386-1.60198E+00 3.04845E+00 9.25419E-04
 -1      1387-1.58344E+00 2.99448E+00 4.21012E-04
 -1      1388-1.56632E+00 2.97181E+00 2.02355E-04
 -1      1389-7.57347E-01 1.81136E+00-2.16236E-03
 -1      1390-8.37078E-01 1.88522E+00-1.76767E-03
 -1      1391-6.96187E-01 1.62586E+00-1.91325E-03
 -1      1392-7.08115E-01 1.73027E+00-2.06026E-03
 -1      1393-7.68526E-01 1.74979E+00 4.92110E-04
 -1      1394-1.80354E+00 3.19615E+00-6.61168E-04
 -1      1395-1.77643E+00 3.13883E+00-3.99333E-04
 -1      1396-1.78373E+00 3.18703E+00-5.58962E-04
 -1      1397-1.79109E+00 3.18558E+00-5.44656E-04
 -1      1398-1.79150E+00 3.17676E+00 2.29030E-04
 -1      1399-1.18141E+00 2.41672E+00 1.09349E-03
 -1      1400-1.09604E+00 2.35217E+00 1.81080E-03
 -1      1401-1.25811E+00 2.59724E+00 1.72677E-03
 -1      1402-1.20386E+00 2.52012E+00 1.55500E-03
 -1      1403-1.20388E+00 2.45868E+00-6.37463E-04
 -1      1404-1.71141E+00 3.14615E+00 6.45319E-04
 -1      1405-1.68790E+00 3.12828E+00 7.43790E-04
 -1      1406-1.66825E+00 3.09887E+00 8.79476E-05
 -1      1407-1.63466E+00 3.08008E+00 1.07421E-03
 -1      1408-1.68296E+00 3.10604E+00-5.85259E-04
 -1      1409-1.36060E+00 2.73759E+00 1.22096E-03
 -1      1410-1.34045E+00 2.64676E+00 6.11744E-04
 -1      1411-1.44859E+00 2.86672E+00 1.19096E-03
 -1      1412-1.42361E+00 2.78912E+00 4.22650E-04
 -1      1413-1.40470E+00 2.75205E+00 6.25426E-04
 -1      1414-6.75863E-02 3.74288E-01 7.92185E-04
 -1      1415-8.19409E-02 3.16489E-01 7.33409E-04
 -1      1416-3.83040E-02 2.80498E-01 5.61903E-04
 -1      1417-2.84214E-02 2.41365E-01 5.10350E-04
 -1      1418-5.92428E-02 2.99500E-01 1.10962E-04
 -1      1419-3.85953E-01 9.93954E-01 1.65895E-03
 -1      1420-2.98789E-01 9.41902E-01 1.79236E-03
 -1      1421-4.17169E-01 1.18938E+00 2.01793E-03
 -1      1422-3.74650E-01 1.10479E+00 1.95282E-03
 -1      1423-3.95514E-01 1.03783E+00-4.66831E-04
 -1      1424-7.12070E-01 1.72819E+00 2.28444E-03
 -1      1425-6.60227E-01 1.63845E+00 2.12232E-03
 -1      1426-6.68982E-01 1.57805E+00-4.25057E-04
 -1      1427-6.29933E-01 1.53325E+00 2.06638E-03
 -1      1428-5.55773E-01 1.46170E+00 2.17555E-03
 -1      1429-1.44588E-01 5.98779E-01 1.22205E-03
 -1      1430-1.21700E-01 5.38480E-01 1.14632E-03
 -1      1431-1.37745E-01 4.66769E-01 8.65633E-04
 -1      1432-8.39693E-02 4.25667E-01 9.47782E-04
 -1      1433-1.41338E-01 4.97275E-01-2.67731E-04
 -1      1434-2.85577E-01 8.57741E-01 1.53355E-03
 -1      1435-2.25048E-01 7.98855E-01 1.57909E-03
 -1      1436-1.95032E-01 7.29799E-01 1.42188E-03
 -1      1437-1.84996E-01 6.55797E-01 1.28474E-03
 -1      1438-2.34789E-01 7.52339E-01 9.04750E-05
 -1      1439-4.18296E-04 8.17289E-03 1.11916E-04
 -1      1440 2.02488E-03 1.45285E-02 1.05452E-04
 -1      1441 1.18708E-03 9.90006E-03 1.97606E-04
 -1      1442-1.09897E+00 1.92768E+00 5.59730E-05
 -1      1443-1.19782E+00 2.10024E+00 2.32061E-04
 -1      1444-1.28628E+00 2.25933E+00 1.95934E-04
 -1      1445-1.31241E-02 1.03666E-01-2.97827E-04
 -1      1446-7.47081E-03 1.35502E-01-2.82678E-04
 -1      1447-1.99940E-02 1.49310E-01-5.35345E-06
 -1      1448-2.48052E-02 1.68791E-01 3.41935E-04
 -1      1449-2.05198E-02 2.08865E-01 4.70043E-04
 -1      1450-1.74718E+00 3.17158E+00 5.53352E-04
 -1      1451-1.73364E+00 3.15288E+00 5.88310E-04
 -1      1452-1.03897E+00 2.26453E+00 1.81890E-03
 -1      1453-9.82418E-01 2.17573E+00 2.14008E-03
 -1      1454-8.70172E-01 1.99179E+00-1.81055E-03
 -1      1455-9.27225E-01 2.08380E+00-2.11591E-03
 -1      1456-1.00368E+00 2.09683E+00-6.07820E-04
 -1      1457-4.27419E-01 1.07315E+00-1.94825E-03
 -1      1458-4.19007E-01 1.18249E+00-1.91416E-03
 -1      1459-4.67166E-01 1.21120E+00 1.46556E-04
 -1      1460-4.91030E-01 1.25753E+00 1.95595E-03
 -1      1461-5.07305E-01 1.37193E+00 2.07813E-03
 -1      1462-1.76266E+00 3.17485E+00-8.08945E-04
 -1      1463-1.77327E+00 3.18425E+00-5.66550E-04
 -1      1464-1.75714E+00 3.16897E+00-1.65874E-04
 -1      1465 5.36969E-02 2.31934E-02-7.56920E-05
 -1      1466 2.06963E-02 8.52866E-03-2.77634E-04
 -1      1467 5.71886E-03 1.66011E-02-1.35028E-03
 -1      1468 1.68131E-03 1.28711E-03-3.16056E-04
 -1      1469 8.27862E-02 3.78744E-02-5.92854E-04
 -1      1470 2.56097E-02 2.61379E-02-3.82153E-04
 -1      1471 7.25164E-02 3.37433E-02 2.34239E-04
 -1      1472 2.48502E-02 7.14426E-03 8.14418E-04
 -1      1473 3.82047E-02 1.15041E-02 7.15047E-04
 -1      1474 2.40665E-02 3.30696E-03 8.63453E-04
 -1      1475 4.51995E-02 2.13429E-02 9.08578E-04
 -1      1476 4.39439E-02 2.04815E-02 6.85621E-04
 -1      1477 4.42790E-02 1.67206E-02 6.63689E-04
 -1      1478 8.24093E-03 1.78852E-03 1.12801E-03
 -1      1479 4.44918E-02 3.41705E-02 3.61763E-04
 -1      1480 5.74483E-03 2.11300E-03-5.47140E-04
 -1      1481-1.91595E-03 2.29870E-03-1.74034E-04
 -1      1482 5.06994E-02 3.04168E-02 6.79016E-04
 -1      1483 3.54308E-04 9.42450E-03-2.08502E-04
 -1      1484 6.89443E-02 4.49229E-02 3.70220E-06
 -1      1485 9.19101E-02 4.04991E-02 8.24907E-04
 -1      1486 5.13354E-02 2.00100E-02 9.24590E-04
 -1      1487 5.59499E-02 2.97871E-02 5.14065E-04
 -1      1488 2.49403E-03 1.74130E-04 2.31919E-04
 -1      1489 4.97943E-04 6.08098E-04-5.60911E-05
 -1      1490 1.47194E-02 2.19751E-02-1.01527E-03
 -1      1491 4.69548E-02 2.01092E-02-5.13614E-04
 -1      1492 2.85975E-02 6.22650E-03 8.10730E-04
 -1      1493 2.24188E-02 4.96034E-03 9.18770E-04
 -1      1494 1.01378E-02 1.90618E-03 1.06590E-03
 -1      1495 1.56873E-02 1.31402E-03 8.57390E-04
 -1      1496-1.43477E-03 3.59735E-03-2.21281E-04
 -1      1497 8.95857E-02 4.22678E-02-7.63653E-04
 -1      1498 4.60064E-02 2.05103E-02 2.65224E-04
 -1      1499 8.90857E-02 5.11186E-02-5.22236E-04
 -1      1500 1.69705E-02 7.92432E-03-1.31473E-04
 -1      1501 3.14994E-02 2.83808E-02-1.61635E-04
 -1      1502 9.38250E-02 4.63237E-02 5.22378E-04
 -1      1503 6.35519E-02 3.02369E-02 6.89022E-04
 -1      1504 8.72600E-02 4.45426E-02 3.05500E-04
 -1      1505 9.07148E-04 6.33812E-03-6.86447E-05
 -1      1506 6.70746E-02 2.81453E-02 8.31930E-04
 -1      1507 1.71049E-02 2.66833E-02-6.96858E-04
 -1      1508 8.24548E-02 4.20805E-02 8.48831E-04
 -1      1509 6.53788E-02 2.15709E-02 8.15364E-04
 -1      1510 3.40369E-02 1.37447E-02 9.03231E-04
 -1      1511 6.25798E-02 2.52700E-02 1.04335E-03
 -1      1512 3.69058E-03 3.41880E-03-7.48660E-05
 -1      1513 5.73177E-02 3.52947E-02 5.18374E-04
 -1      1514 4.53731E-02 1.26174E-02 6.93106E-04
 -1      1515 5.12258E-02 1.52449E-02 6.50954E-04
 -1      1516 2.70603E-02 6.96363E-03 8.67461E-04
 -1      1517 2.23448E-02 4.37520E-03 7.84872E-04
 -1      1518 7.58618E-02 3.54077E-02 4.19272E-04
 -1      1519 2.53752E-02 9.01419E-03-8.75808E-04
 -1      1520 2.68736E-02 1.18264E-02 3.07455E-05
 -1      1521 1.09108E-01 5.22295E-02 9.71375E-05
 -1      1522 9.67969E-03 5.07781E-03-2.34283E-04
 -1      1523 2.89314E-02 3.10451E-02-1.85564E-04
 -1      1524 3.91484E-02 3.26324E-02-2.22242E-04
 -1      1525 1.99837E-02 2.77395E-03 8.95123E-04
 -1      1526 1.39640E-02 1.51447E-03 6.82219E-04
 -1      1527 1.23913E-03-7.37563E-05 7.83102E-05
 -1      1528 5.71914E-02 4.04962E-02 1.93176E-03
 -1      1529 7.97576E-02 5.92232E-02-3.45990E-03
 -1      1530 3.07789E-02 1.06285E-02 9.08387E-04
 -1      1531 2.61072E-02 7.95294E-03 1.02590E-03
 -1      1532 5.18646E-02 2.18901E-02 9.12862E-04
 -1      1533 8.79916E-02 4.35711E-02 7.60846E-04
 -1      1534 6.32441E-02 3.66588E-02 7.92636E-04
 -1      1535 6.86819E-02 2.98053E-02 6.89458E-04
 -1      1536 9.15507E-06 2.87193E-03-1.67029E-04
 -1      1537 1.76980E-03 4.63479E-03-2.41745E-04
 -1      1538 3.40432E-02 2.59981E-02-7.56247E-04
 -1      1539 3.24563E-02 2.17642E-02-5.02206E-04
 -1      1540 4.58050E-02 3.05119E-02-8.26804E-04
 -1      1541 3.53807E-03 5.89952E-03-1.33707E-04
 -1      1542 1.61510E-02 1.40339E-02-5.81129E-04
 -1      1543 8.61510E-02 4.70401E-02 4.56059E-04
 -1      1544 7.75750E-02 4.71277E-02-7.46604E-04
 -1      1545 3.53950E-02 7.81872E-03 7.64111E-04
 -1      1546 2.60545E-02 4.67705E-03 7.93935E-04
 -1      1547 1.89139E-02 1.60292E-02-2.61951E-04
 -1      1548 5.54094E-02 3.51421E-02-9.81856E-04
 -1      1549 7.52724E-02 3.61093E-02 8.66271E-04
 -1      1550 8.57755E-03 9.77664E-03-5.98470E-04
 -1      1551 7.21698E-02 3.31079E-02 8.55842E-04
 -1      1552 1.00418E-01 5.37329E-02 6.45736E-05
 -1      1553 8.66387E-02 4.96815E-02-8.51859E-06
 -1      1554 6.09658E-02 3.69814E-02-1.49597E-04
 -1      1555 1.08067E-01 5.88415E-02 4.29990E-04
 -1      1556 7.19215E-02 3.81982E-02 6.06179E-04
 -1      1557 3.11010E-02 8.26945E-03 8.25298E-04
 -1      1558 3.70107E-02 1.65485E-02 9.52340E-04
 -1      1559 5.48543E-02 2.03618E-02 7.71706E-04
 -1      1560 5.09438E-02 1.73219E-02 8.50902E-04
 -1      1561-2.65025E-04-3.24810E-04-9.04527E-05
 -1      1562 1.20684E-02 6.73194E-04 1.07330E-03
 -1      1563 8.94763E-04 1.17238E-03-1.45418E-04
 -1      1564 4.09294E-03 1.62861E-04 3.29934E-04
 -1      1565 2.14130E-03 5.10383E-04-9.61656E-04
 -1      1566 2.31085E-03-3.59668E-04-5.35058E-04
 -1      1567-1.28422E-03-2.04123E-04-6.67878E-05
 -1      1568 8.57777E-05 7.72842E-04 2.29761E-05
 -1      1569-3.19276E-05 2.98494E-04 9.90571E-06
 -1      1570 6.82959E-05-3.43906E-04-1.34894E-03
 -1      1571-5.86258E-04 6.09598E-04-2.26976E-03
 -1      1572-2.29042E-04-3.05737E-04-5.71138E-03
 -1      1573 6.22302E-04-1.01194E-03-2.94488E-03
 -1      1574 4.49168E-04 3.39436E-04-1.36388E-03
 -1      1575 6.26756E-04 1.48100E-04-6.04089E-03
 -1      1576-6.86058E-04-3.35979E-03-1.50624E+00
 -1      1577-1.40383E-03-1.87380E-03-1.31170E+00
 -1      1578-5.20615E-04-2.25418E-03-1.58744E+00
 -1      1579 1.92800E-03 8.43927E-04-1.31457E+00
 -1      1580 4.09816E-03 7.46198E-04-1.50528E+00
 -1      1581 3.71929E-03-8.21077E-04-1.56742E+00
 -1      1582-4.02838E-04-1.11463E-04-7.92042E-04
 -1      1583-6.38957E-04-3.57475E-04-7.60157E-04
 -1      1584-2.42933E-03-3.44522E-05-2.15869E-03
 -1      1585 1.54533E-04 3.47652E-04-1.25931E-03
 -1      1586-2.92883E-04 2.72104E-04-8.24986E-04
 -1      1587-2.71605E-03 9.40935E-05-1.50125E-03
 -1      1588-1.77033E-03 4.53920E-05-2.33174E-03
 -1      1589-1.49506E-03-1.07426E-03-1.39408E+00
 -1      1590-1.05357E-03-3.01240E-04-1.57574E+00
 -1      1591-9.39939E-04-2.00878E-03-1.33234E+00
 -1      1592 1.64046E-04 4.38642E-04-1.60972E+00
 -1      1593 1.12908E-03 8.97464E-04-1.42487E+00
 -1      1594 1.79638E-05-4.33670E-04-1.39487E+00
 -1      1595 1.93109E-03 8.70775E-05-1.28936E+00
 -1      1596-5.41673E-03-9.73120E-04-1.04592E-02
 -1      1597-1.13063E-02-1.76511E-03-1.88688E-02
 -1      1598-3.97506E-03-1.12576E-04-5.04230E-03
 -1      1599-1.10840E-02-1.92734E-03-2.76358E-02
 -1      1600-1.78061E-02-3.07251E-03-3.78850E-02
 -1      1601-1.69105E-02-1.81248E-03-2.06442E-02
 -1      1602-1.58391E-02-3.35613E-03-5.12213E-02
 -1      1603-2.95910E-02-6.01754E-03-6.69253E-02
 -1      1604-2.38431E-02-3.73199E-03-4.13314E-02
 -1      1605-2.93918E-02-7.02791E-03-8.48854E-02
 -1      1606-3.09352E-02-8.32274E-03-1.05019E-01
 -1      1607-2.22951E-02-5.23199E-03-7.23783E-02
 -1      1608-2.55009E-02-8.22075E-03-1.27682E-01
 -1      1609-3.93475E-02-1.23266E-02-1.52052E-01
 -1      1610-3.74713E-02-9.93273E-03-1.11435E-01
 -1      1611-4.74701E-02-1.57392E-02-1.78220E-01
 -1      1612-3.15439E-02-1.27508E-02-2.06878E-01
 -1      1613-3.23400E-02-1.11895E-02-1.59536E-01
 -1      1614-4.53391E-02-1.79841E-02-2.38023E-01
 -1      1615-3.57910E-02-1.63927E-02-2.71449E-01
 -1      1616-5.46805E-02-1.99567E-02-2.16713E-01
 -1      1617-5.06629E-02-2.25322E-02-3.06709E-01
 -1      1618-6.41851E-02-2.86203E-02-3.44227E-01
 -1      1619-6.10836E-02-2.48051E-02-2.82387E-01
 -1      1620-5.98277E-02-2.89261E-02-3.84503E-01
 -1      1621-6.69861E-02-3.31332E-02-4.25485E-01
 -1      1622-4.61992E-02-2.32974E-02-3.56568E-01
 -1      1623-6.10678E-02-3.24806E-02-4.69787E-01
 -1      1624-4.68467E-02-2.81694E-02-5.17215E-01
 -1      1625-4.67689E-02-2.62896E-02-4.39001E-01
 -1      1626-6.53785E-02-3.71225E-02-5.64588E-01
 -1      1627-5.02116E-02-3.20439E-02-6.17401E-01
 -1      1628-6.91000E-02-3.77961E-02-5.32644E-01
 -1      1629-7.02790E-02-4.20908E-02-6.73240E-01
 -1      1630-8.73737E-02-5.09740E-02-7.28366E-01
 -1      1631-8.59896E-02-4.82233E-02-6.34746E-01
 -1      1632-7.91649E-02-4.87222E-02-7.81952E-01
 -1      1633-7.55986E-02-4.77854E-02-8.37404E-01
 -1      1634-6.18672E-02-4.06682E-02-7.43811E-01
 -1      1635-5.72469E-02-4.03947E-02-9.00542E-01
 -1      1636-7.92815E-02-5.13789E-02-9.61502E-01
 -1      1637-8.30199E-02-5.25345E-02-8.56234E-01
 -1      1638-9.16670E-02-5.77348E-02-1.02291E+00
 -1      1639-8.69354E-02-5.62078E-02-1.08970E+00
 -1      1640-6.17587E-02-4.42644E-02-9.75997E-01
 -1      1641-9.92941E-02-6.25483E-02-1.15911E+00
 -1      1642-6.12436E-02-4.48064E-02-1.22802E+00
 -1      1643-6.81020E-02-4.87473E-02-1.09995E+00
 -1      1644-8.42486E-02-5.48712E-02-1.29495E+00
 -1      1645-6.13767E-02-4.49432E-02-1.36160E+00
 -1      1646-1.03726E-01-6.66243E-02-1.23049E+00
 -1      1647-8.28781E-02-5.40352E-02-1.42564E+00
 -1      1648-9.89606E-02-6.16409E-02-1.48997E+00
 -1      1649-1.03024E-01-6.60956E-02-1.36184E+00
 -1      1650-8.57055E-02-5.51853E-02-1.55395E+00
 -1      1651-7.91407E-02-5.04613E-02-1.61570E+00
 -1      1652-6.67664E-02-4.94785E-02-1.49162E+00
 -1      1653-5.53738E-02-4.00900E-02-1.67795E+00
 -1      1654-7.82435E-02-4.96449E-02-1.74068E+00
 -1      1655-8.93651E-02-5.82193E-02-1.62027E+00
 -1      1656-8.53783E-02-5.23271E-02-1.80448E+00
 -1      1657-6.74717E-02-4.24713E-02-1.86191E+00
 -1      1658-5.87774E-02-4.46010E-02-1.73560E+00
 -1      1659-4.59992E-02-3.36780E-02-1.91544E+00
 -1      1660-7.22760E-02-4.23697E-02-1.96425E+00
 -1      1661-7.92851E-02-5.22108E-02-1.84335E+00
 -1      1662-5.07553E-02-3.40483E-02-2.00997E+00
 -1      1663-4.77917E-02-3.18331E-02-2.05156E+00
 -1      1664-4.18700E-02-3.49447E-02-1.93910E+00
 -1      1665-5.53821E-02-3.28877E-02-2.08908E+00
 -1      1666-3.00455E-02-2.34902E-02-2.12344E+00
 -1      1667-3.51530E-02-3.06025E-02-2.02125E+00
 -1      1668-3.66058E-02-2.36798E-02-2.15240E+00
 -1      1669-3.17467E-02-2.23590E-02-2.17998E+00
 -1      1670-4.02018E-02-3.00267E-02-2.08869E+00
 -1      1671-3.17758E-02-2.10009E-02-2.20270E+00
 -1      1672-2.48555E-02-1.83912E-02-2.22218E+00
 -1      1673-2.11309E-02-2.13787E-02-2.14155E+00
 -1      1674-2.35627E-02-1.71242E-02-2.23816E+00
 -1      1675-1.92112E-02-1.52376E-02-2.25134E+00
 -1      1676-1.61401E-02-1.82144E-02-2.18118E+00
 -1      1677-1.35980E-02-1.30525E-02-2.26212E+00
 -1      1678-7.26330E-03-1.00299E-02-2.27045E+00
 -1      1679-1.05636E-02-1.46178E-02-2.20861E+00
 -1      1680-7.62465E-03-8.84296E-03-2.27570E+00
 -1      1681-6.04525E-03-8.49797E-03-2.28048E+00
 -1      1682-9.48150E-03-1.21219E-02-2.22593E+00
 -1      1683-4.95535E-03-7.83401E-03-2.28329E+00
 -1      1684-2.08001E-03-6.08579E-03-2.26226E+00
 -1      1685-3.11642E-03-8.55518E-03-2.23612E+00
 -1      1686-2.29549E-03-5.36653E-03-2.24090E+00
 -1      1687-1.35179E-03-4.53900E-03-2.31845E+00
 -1      1688-2.48111E-03-7.13175E-03-2.21646E+00
 -1      1689-1.44481E-03-4.17306E-03-2.35267E+00
 -1      1690-1.05391E-03-2.92714E-03-1.94512E+00
 -1      1691-1.29545E-03-5.10747E-03-2.34780E+00
 -1      1692-6.85966E-04-2.39177E-03-1.51910E+00
 -1      1693-6.62334E-03-9.53762E-04-1.86476E-02
 -1      1694-4.56938E-03-3.95593E-04-1.04989E-02
 -1      1695-2.99821E-03-2.61987E-04-4.99091E-03
 -1      1696-1.57941E-02-3.72379E-03-3.80940E-02
 -1      1697-1.20882E-02-2.59442E-03-2.75522E-02
 -1      1698-1.37853E-02-2.00391E-03-2.02399E-02
 -1      1699-1.97352E-02-5.88131E-03-6.62378E-02
 -1      1700-2.06080E-02-5.38776E-03-5.09937E-02
 -1      1701-1.45754E-02-3.12306E-03-4.15656E-02
 -1      1702-2.49317E-02-8.55237E-03-1.03511E-01
 -1      1703-1.66893E-02-5.71494E-03-8.38255E-02
 -1      1704-2.77429E-02-7.44247E-03-7.17644E-02
 -1      1705-2.98591E-02-1.16839E-02-1.48776E-01
 -1      1706-2.05346E-02-8.10529E-03-1.25817E-01
 -1      1707-3.43824E-02-1.08963E-02-1.10284E-01
 -1      1708-3.45880E-02-1.50682E-02-2.01751E-01
 -1      1709-2.37678E-02-1.06955E-02-1.73413E-01
 -1      1710-3.96597E-02-1.43359E-02-1.56306E-01
 -1      1711-4.18255E-02-2.00127E-02-2.64384E-01
 -1      1712-4.19327E-02-1.88398E-02-2.31773E-01
 -1      1713-2.98776E-02-1.34848E-02-2.14236E-01
 -1      1714-3.16061E-02-1.85441E-02-3.34504E-01
 -1      1715-4.96159E-02-2.44131E-02-2.98997E-01
 -1      1716-3.62530E-02-1.79799E-02-2.79682E-01
 -1      1717-3.43810E-02-2.20008E-02-4.12619E-01
 -1      1718-4.45140E-02-2.52665E-02-3.72279E-01
 -1      1719-5.91331E-02-2.97818E-02-3.51708E-01
 -1      1720-5.14195E-02-3.22468E-02-5.02088E-01
 -1      1721-4.85775E-02-2.97214E-02-4.55798E-01
 -1      1722-5.53825E-02-3.13353E-02-4.31527E-01
 -1      1723-5.91597E-02-3.89740E-02-6.02016E-01
 -1      1724-6.10209E-02-3.84267E-02-5.50932E-01
 -1      1725-4.33930E-02-2.85016E-02-5.22671E-01
 -1      1726-5.80487E-02-4.17180E-02-7.06268E-01
 -1      1727-6.87928E-02-4.55316E-02-6.52638E-01
 -1      1728-5.01612E-02-3.44034E-02-6.23563E-01
 -1      1729-6.05938E-02-4.61671E-02-8.17254E-01
 -1      1730-4.33667E-02-3.54117E-02-7.62485E-01
 -1      1731-7.94490E-02-5.27422E-02-7.30621E-01
 -1      1732-6.25545E-02-5.02693E-02-9.31586E-01
 -1      1733-4.50106E-02-3.89212E-02-8.73472E-01
 -1      1734-8.25449E-02-5.71213E-02-8.40559E-01
 -1      1735-4.64523E-02-4.37851E-02-1.06212E+00
 -1      1736-4.58773E-02-4.20798E-02-9.93826E-01
 -1      1737-8.57630E-02-6.25625E-02-9.57840E-01
 -1      1738-6.68939E-02-5.91212E-02-1.21057E+00
 -1      1739-6.55186E-02-5.71552E-02-1.13761E+00
 -1      1740-7.46124E-02-5.96602E-02-1.08811E+00
 -1      1741-7.05606E-02-6.50625E-02-1.34385E+00
 -1      1742-7.66249E-02-6.74856E-02-1.27698E+00
 -1      1743-5.42052E-02-4.97172E-02-1.21881E+00
 -1      1744-4.43366E-02-5.07946E-02-1.44878E+00
 -1      1745-7.88669E-02-7.29146E-02-1.41013E+00
 -1      1746-5.77850E-02-5.42433E-02-1.34924E+00
 -1      1747-4.24145E-02-5.29933E-02-1.61908E+00
 -1      1748-5.91142E-02-6.36786E-02-1.49793E+00
 -1      1749-8.00830E-02-7.23507E-02-1.43684E+00
 -1      1750-5.15637E-02-6.35567E-02-1.68177E+00
 -1      1751-5.54666E-02-6.54824E-02-1.68214E+00
 -1      1752-8.06099E-02-7.79533E-02-1.68760E+00
 -1      1753-4.62843E-02-6.22816E-02-1.84230E+00
 -1      1754-3.37603E-02-5.02342E-02-1.75514E+00
 -1      1755-6.79727E-02-7.14960E-02-1.67563E+00
 -1      1756-4.14044E-02-6.15698E-02-1.94393E+00
 -1      1757-4.93792E-02-6.74657E-02-1.89449E+00
 -1      1758-3.66724E-02-4.92368E-02-1.82960E+00
 -1      1759-2.97896E-02-5.39189E-02-2.03206E+00
 -1      1760-4.24218E-02-6.52798E-02-1.98953E+00
 -1      1761-3.32644E-02-4.82171E-02-1.92605E+00
 -1      1762-2.31726E-02-5.00447E-02-2.10536E+00
 -1      1763-2.95313E-02-5.63971E-02-2.07035E+00
 -1      1764-2.32462E-02-4.15703E-02-2.00890E+00
 -1      1765-8.53116E-03-3.41810E-02-2.16286E+00
 -1      1766-2.23231E-02-5.07505E-02-2.13537E+00
 -1      1767-1.89694E-02-3.86231E-02-2.07746E+00
 -1      1768-3.17890E-03-2.85135E-02-2.20727E+00
 -1      1769-9.25849E-03-3.88604E-02-2.18590E+00
 -1      1770-2.12160E-02-4.47514E-02-2.13135E+00
 -1      1771 6.70555E-04-2.27816E-02-2.23866E+00
 -1      1772-3.27891E-03-3.14472E-02-2.22346E+00
 -1      1773-1.23553E-02-3.67934E-02-2.17208E+00
 -1      1774 3.20570E-03-2.08725E-02-2.25896E+00
 -1      1775 1.29059E-03-2.42567E-02-2.24947E+00
 -1      1776-5.08862E-03-2.82215E-02-2.20083E+00
 -1      1777 4.99432E-03-1.23672E-02-2.27183E+00
 -1      1778 4.61644E-03-1.45621E-02-2.26638E+00
 -1      1779 4.57246E-04-2.02242E-02-2.21959E+00
 -1      1780 5.32075E-03-8.13760E-03-2.28012E+00
 -1      1781 5.74700E-03-1.20914E-02-2.27524E+00
 -1      1782 2.66030E-03-1.48955E-02-2.23059E+00
 -1      1783 5.10621E-03-4.66357E-03-2.32680E+00
 -1      1784 5.94923E-03-7.21928E-03-2.27547E+00
 -1      1785 4.27255E-03-1.01184E-02-2.24710E+00
 -1      1786 3.86418E-03-1.70825E-03-1.93091E+00
 -1      1787 5.40685E-03-3.78373E-03-2.34666E+00
 -1      1788 4.64841E-03-5.80947E-03-2.34892E+00
 -1      1789 3.13723E-03-1.04960E-03-1.46606E+00
 -1      1790-1.06792E-01-7.54151E-02-1.77407E+00
 -1      1791-4.94025E-02-4.36438E-02-1.82561E+00
 -1      1792-6.43415E-02-5.09069E-02-1.87215E+00
 -1      1793-3.65729E-02-3.62499E-02-1.91661E+00
 -1      1794-6.77912E-02-5.96554E-02-1.84511E+00
 -1      1795-1.50416E-02-2.12273E-02-2.12584E+00
 -1      1796-1.26915E-02-1.89866E-02-2.14219E+00
 -1      1797-1.93847E-02-2.48246E-02-2.08312E+00
 -1      1798-2.66233E-02-2.84420E-02-2.10557E+00
 -1      1799-2.43761E-02-3.32356E-02-2.11302E+00
 -1      1800-5.99547E-04-1.39663E-02-2.18069E+00
 -1      1801-4.55607E-03-2.03791E-02-2.17264E+00
 -1      1802-3.46027E-03-1.86393E-02-2.16394E+00
 -1      1803-1.44015E-02-3.08451E-02-2.15200E+00
 -1      1804-9.01693E-03-2.00850E-02-2.16984E+00
 -1      1805-2.73553E-03-1.06914E-02-2.19081E+00
 -1      1806-4.18978E-05-6.00372E-03-2.15447E+00
 -1      1807 1.37520E-04-5.04938E-03-2.20827E+00
 -1      1808 7.17327E-04-6.99332E-03-2.11240E+00
 -1      1809-8.49966E-05-4.11744E-03-1.98956E+00
 -1      1810-9.54655E-02-6.71465E-02-1.56328E+00
 -1      1811-5.84544E-02-4.84661E-02-1.62517E+00
 -1      1812-6.23588E-02-5.01343E-02-1.49774E+00
 -1      1813-9.27392E-02-7.10525E-02-1.53305E+00
 -1      1814-6.31860E-02-5.06728E-02-1.43116E+00
 -1      1815-3.76075E-02-4.81113E-02-1.98737E+00
 -1      1816-2.74215E-02-3.88905E-02-1.95078E+00
 -1      1817-2.01365E-02-3.38249E-02-2.05128E+00
 -1      1818-2.29942E-02-3.66201E-02-2.02138E+00
 -1      1819-4.54291E-02-4.70405E-02-2.00696E+00
 -1      1820-1.34411E-01-8.55417E-02-1.16914E+00
 -1      1821-6.91174E-02-5.21021E-02-1.23383E+00
 -1      1822-6.86590E-02-5.26489E-02-1.29909E+00
 -1      1823-1.33367E-01-8.65971E-02-1.36498E+00
 -1      1824-9.87494E-02-7.03337E-02-1.26185E+00
 -1      1825-2.65047E-02-8.67223E-03-1.18094E-01
 -1      1826-3.48510E-02-9.68694E-03-9.73053E-02
 -1      1827-4.00862E-02-1.44743E-02-1.67945E-01
 -1      1828-2.84480E-02-1.01088E-02-1.41294E-01
 -1      1829-4.22940E-02-1.27468E-02-1.29123E-01
 -1      1830-4.12044E-02-1.81388E-02-2.60177E-01
 -1      1831-8.31027E-02-3.33766E-02-2.94935E-01
 -1      1832-6.94947E-02-2.36772E-02-1.97322E-01
 -1      1833-3.92107E-02-1.62568E-02-2.27846E-01
 -1      1834-5.66922E-02-2.26674E-02-2.43066E-01
 -1      1835-2.03071E-02-4.51998E-03-6.15984E-02
 -1      1836-2.24815E-02-5.64962E-03-7.88458E-02
 -1      1837-3.41856E-02-5.36309E-03-4.63562E-02
 -1      1838-1.48015E-02-2.24430E-03-3.30328E-02
 -1      1839-3.25707E-02-6.02687E-03-5.32414E-02
 -1      1840-5.23945E-02-3.53575E-02-6.46761E-01
 -1      1841-5.08546E-02-3.34781E-02-5.94047E-01
 -1      1842-6.67726E-02-3.93472E-02-5.43993E-01
 -1      1843-8.12501E-02-4.60703E-02-5.71517E-01
 -1      1844-4.42849E-02-2.78837E-02-4.98992E-01
 -1      1845-5.88888E-02-4.33230E-02-9.36164E-01
 -1      1846-8.75625E-02-5.83679E-02-9.89290E-01
 -1      1847-5.81018E-02-4.20340E-02-8.76912E-01
 -1      1848-1.02907E-01-6.58281E-02-9.05690E-01
 -1      1849-9.43168E-02-5.81111E-02-8.17618E-01
 -1      1850-4.34136E-02-2.17800E-02-3.31282E-01
 -1      1851-4.50509E-02-2.35528E-02-3.68747E-01
 -1      1852-6.39746E-02-3.21614E-02-4.09826E-01
 -1      1853-4.59586E-02-2.66681E-02-4.56812E-01
 -1      1854-6.84844E-02-3.33129E-02-3.86934E-01
 -1      1855-1.14018E-02-1.58657E-03-2.27508E-02
 -1      1856-1.27989E-02-1.43351E-03-1.32738E-02
 -1      1857-1.11907E-02-6.02276E-04-8.82144E-03
 -1      1858-4.13718E-03-2.41761E-04-6.25481E-03
 -1      1859-2.67042E-03-1.19956E-04-3.97654E-03
 -1      1860-2.75505E-03-9.15335E-05-2.95214E-03
 -1      1861-5.72543E-02-5.92203E-02-1.81837E+00
 -1      1862-4.01316E-02-4.62761E-02-1.76868E+00
 -1      1863-6.62341E-02-6.30672E-02-1.70008E+00
 -1      1864-5.34423E-02-5.36435E-02-1.66024E+00
 -1      1865-7.70240E-02-6.43771E-02-1.74455E+00
 -1      1866-2.32331E-03-9.89340E-03-2.18911E+00
 -1      1867-1.43434E-03-8.46029E-03-2.18981E+00
 -1      1868-9.42588E-03-1.63456E-02-2.17622E+00
 -1      1869-3.76141E-03-1.15952E-02-2.18372E+00
 -1      1870-3.73382E-03-1.48764E-02-2.18468E+00
 -1      1871 2.47682E-03-4.59399E-03-1.99463E+00
 -1      1872 2.29842E-03-5.53831E-03-2.21190E+00
 -1      1873 1.35762E-03-1.72599E-03-1.52386E+00
 -1      1874 9.09536E-04-2.83510E-03-1.67678E+00
 -1      1875 1.51853E-03-9.29801E-04-1.37537E+00
 -1      1876 7.40030E-04-9.61216E-04-1.29613E+00
 -1      1877-8.22825E-02-6.42386E-02-1.22757E+00
 -1      1878-5.54418E-02-4.74407E-02-1.16421E+00
 -1      1879-5.54574E-02-4.67131E-02-1.10570E+00
 -1      1880-9.36881E-02-6.65748E-02-1.04591E+00
 -1      1881-9.67563E-02-6.75132E-02-1.13431E+00
 -1      1882 2.22725E-03-6.96200E-03-2.16134E+00
 -1      1883 1.10968E-03-1.18394E-02-2.20007E+00
 -1      1884 2.19314E-05-1.41716E-02-2.18833E+00
 -1      1885 4.76370E-04-1.18686E-02-2.18632E+00
 -1      1886-1.26372E-03-1.10151E-02-2.18782E+00
 -1      1887-5.84372E-02-5.24132E-02-1.35545E+00
 -1      1888-5.91005E-02-5.18059E-02-1.29182E+00
 -1      1889-5.82648E-02-5.40482E-02-1.47968E+00
 -1      1890-9.71153E-02-7.70310E-02-1.40499E+00
 -1      1891-1.14990E-01-8.16536E-02-1.39203E+00
 -1      1892-5.83180E-02-3.60354E-02-5.99920E-01
 -1      1893-1.15061E-01-6.27016E-02-6.48730E-01
 -1      1894-5.82473E-02-3.88135E-02-7.02171E-01
 -1      1895-5.99302E-02-4.06833E-02-7.61111E-01
 -1      1896-1.02415E-01-5.91762E-02-6.73015E-01
 -1      1897-3.82694E-02-1.88292E-02-2.95562E-01
 -1      1898-3.64876E-02-1.71229E-02-2.60749E-01
 -1      1899-4.49114E-02-2.41252E-02-3.69316E-01
 -1      1900-8.28007E-02-3.71183E-02-3.32228E-01
 -1      1901-7.46476E-02-3.21992E-02-3.12570E-01
 -1      1902-5.91220E-02-4.14423E-02-7.53532E-01
 -1      1903-1.12047E-01-6.62776E-02-7.00558E-01
 -1      1904-6.00700E-02-4.32685E-02-8.08573E-01
 -1      1905-9.08789E-02-5.69136E-02-7.84752E-01
 -1      1906-1.12717E-01-7.18452E-02-8.70113E-01
 -1      1907-4.52885E-03-8.76855E-06-2.95728E-03
 -1      1908-3.25517E-03-9.90292E-05-4.07822E-03
 -1      1909-4.62461E-03-2.11371E-04-6.42353E-03
 -1      1910-4.14415E-05-1.42468E-03-1.33185E+00
 -1      1911-4.92990E-04-1.83061E-03-1.45117E+00
 -1      1912-1.08760E-04-2.03038E-03-1.56032E+00
 -1      1913-1.96830E-02-3.61560E-02-2.13758E+00
 -1      1914-1.18080E-02-2.66628E-02-2.12115E+00
 -1      1915-1.42410E-02-2.93390E-02-2.10134E+00
 -1      1916-4.05599E-02-5.18708E-02-2.07679E+00
 -1      1917-4.54298E-02-3.99527E-02-2.02639E+00
 -1      1918-2.28719E-02-2.70612E-02-2.05706E+00
 -1      1919-3.32477E-02-3.39903E-02-1.95700E+00
 -1      1920-4.86171E-02-4.16202E-02-1.99331E+00
 -1      1921-2.97580E-02-1.00381E-02-1.42303E-01
 -1      1922-3.19538E-02-1.15077E-02-1.68850E-01
 -1      1923-2.46361E-02-6.88730E-03-9.78170E-02
 -1      1924-4.13422E-02-1.13968E-02-1.18694E-01
 -1      1925-1.59871E-02-3.37759E-03-4.65738E-02
 -1      1926-1.35360E-02-2.38973E-03-3.29925E-02
 -1      1927-2.17329E-02-5.88221E-03-7.84875E-02
 -1      1928-3.01454E-02-6.64519E-03-6.14729E-02
 -1      1929-1.90675E-02-2.44156E-03-2.65370E-02
 -1      1930-1.24936E-02-1.48386E-03-2.30150E-02
 -1      1931-1.28977E-02-7.56317E-04-1.33919E-02
 -1      1932-5.60115E-02-4.68763E-02-1.67775E+00
 -1      1933-5.31980E-02-4.53228E-02-1.72525E+00
 -1      1934-8.87524E-02-7.01902E-02-1.65535E+00
 -1      1935-5.90979E-02-5.60678E-02-1.60916E+00
 -1      1936-8.53204E-02-7.41539E-02-1.67182E+00
 -1      1937-1.80265E-02-2.21951E-02-2.15571E+00
 -1      1938-7.48536E-03-1.51683E-02-2.16772E+00
 -1      1939-1.81114E-02-2.74738E-02-2.14677E+00
 -1      1940-4.50705E-02-5.18146E-02-1.90965E+00
 -1      1941-3.72875E-02-4.53736E-02-1.86622E+00
 -1      1942-5.48222E-02-5.21359E-02-1.93272E+00
 -1      1943-6.43506E-02-4.75079E-02-1.04631E+00
 -1      1944-6.46413E-02-4.81639E-02-1.10770E+00
 -1      1945-9.68846E-02-6.53484E-02-1.01365E+00
 -1      1946-1.14971E-01-7.47338E-02-9.29568E-01
 -1      1947-6.32319E-02-4.86664E-02-9.84256E-01
 -1      1948-4.77136E-02-2.86655E-02-5.03461E-01
 -1      1949-8.12985E-02-4.43428E-02-5.50618E-01
 -1      1950-7.32753E-02-3.90086E-02-4.79110E-01
 -1      1951-6.76710E-02-3.48014E-02-4.08644E-01
 -1      1952-4.27061E-02-2.59825E-02-4.53836E-01
 -1      1953-4.83656E-02-1.69200E-02-1.82462E-01
 -1      1954-4.63594E-02-1.91106E-02-2.27875E-01
 -1      1955-2.99665E-02-1.27520E-02-1.97615E-01
 -1      1956-3.47647E-02-8.48326E-03-8.73655E-02
 -1      1957-3.48017E-02-3.96707E-02-2.06676E+00
 -1      1958 4.81477E-02 2.15052E-02 7.98677E-05
 -1      1959 1.79583E-02 6.99941E-03 2.25101E-05
 -1      1960 4.74706E-03 1.11408E-02 1.79635E-04
 -1      1961 1.25397E-03 1.11217E-03-4.57775E-05
 -1      1962 5.36439E-02 2.59108E-02-1.61514E-04
 -1      1963 3.57157E-02 3.68127E-02 5.74760E-04
 -1      1964 6.56728E-02 3.12050E-02-5.73024E-04
 -1      1965 1.81071E-02 5.01927E-03-9.22466E-04
 -1      1966 3.48991E-02 1.04229E-02-7.29410E-04
 -1      1967 1.86200E-02 2.64185E-03-7.79537E-04
 -1      1968 6.89242E-02 3.27249E-02-7.10766E-04
 -1      1969 3.84828E-02 2.10443E-02-9.32211E-04
 -1      1970 3.89592E-02 1.64756E-02-8.63039E-04
 -1      1971 7.96891E-03 1.73291E-03-1.18020E-03
 -1      1972 5.58073E-02 4.31334E-02-3.88124E-04
 -1      1973 5.40201E-03 1.97079E-03 5.12196E-04
 -1      1974-1.47815E-03 1.17186E-03 9.11866E-05
 -1      1975 9.65637E-02 5.78117E-02-1.97046E-04
 -1      1976-2.82086E-04 4.96080E-03 1.45063E-04
 -1      1977 9.43322E-02 5.92647E-02 4.42179E-04
 -1      1978 9.29302E-02 4.25589E-02-5.73384E-04
 -1      1979 1.00513E-01 4.78287E-02-4.78133E-04
 -1      1980 4.30335E-02 1.69740E-02-7.21311E-04
 -1      1981 2.45213E-03 1.79980E-04-2.25906E-04
 -1      1982 3.87282E-04 4.31105E-04 7.04384E-05
 -1      1983 1.33322E-02 1.85500E-02 4.47112E-04
 -1      1984 4.61448E-02 1.88843E-02 1.08246E-03
 -1      1985 3.30622E-02 1.16177E-02-9.47374E-04
 -1      1986 2.50634E-02 5.59394E-03-7.44352E-04
 -1      1987 2.06059E-02 4.20379E-03-1.00106E-03
 -1      1988 1.06463E-02 2.06644E-03-1.03642E-03
 -1      1989 1.55870E-02 1.26944E-03-8.52813E-04
 -1      1990-9.52318E-04 2.32479E-03 1.32207E-04
 -1      1991 5.98037E-02 2.72753E-02-1.84507E-04
 -1      1992 8.23231E-02 3.76995E-02 7.21021E-04
 -1      1993 1.00310E-01 5.79823E-02 6.90805E-04
 -1      1994 2.15957E-02 8.85600E-03 8.52347E-04
 -1      1995 4.63536E-02 2.17769E-02-6.32978E-04
 -1      1996 2.12167E-02 1.93253E-02 1.13523E-04
 -1      1997 1.11628E-03 7.79411E-03 5.75091E-04
 -1      1998 1.02104E-02 1.67791E-02 1.70705E-04
 -1      1999 5.14048E-02 2.17685E-02-7.73550E-04
 -1      2000 7.11304E-02 3.46901E-02-7.22886E-04
 -1      2001 6.58695E-02 3.55176E-02-6.66377E-04
 -1      2002 8.52654E-02 4.24625E-02-1.11379E-03
 -1      2003 6.77010E-02 2.39592E-02-6.75361E-04
 -1      2004 5.01688E-02 1.89620E-02-7.47575E-04
 -1      2005 3.19452E-03 2.41604E-03 1.75502E-04
 -1      2006 5.61629E-02 3.17490E-02-8.62818E-04
 -1      2007 5.76055E-02 2.12957E-02-7.81848E-04
 -1      2008 4.93321E-02 3.10728E-02-6.67059E-04
 -1      2009 3.72667E-02 1.03775E-02-8.25021E-04
 -1      2010 2.67111E-02 6.97028E-03-8.79575E-04
 -1      2011 2.92038E-02 5.98632E-03-6.54476E-04
 -1      2012 4.03212E-02 1.28860E-02-9.91518E-04
 -1      2013 4.31779E-02 2.02065E-02 8.85004E-04
 -1      2014 2.98540E-02 1.35668E-02-8.77413E-04
 -1      2015 3.03863E-02 1.27054E-02-8.74251E-05
 -1      2016 6.98212E-02 3.27850E-02-4.18494E-04
 -1      2017 1.08684E-02 6.19512E-03 3.55143E-04
 -1      2018 1.65606E-02 2.12348E-02 9.83982E-04
 -1      2019 5.12167E-02 4.44454E-02 9.18276E-04
 -1      2020 2.60816E-02 3.76546E-03-8.67873E-04
 -1      2021 9.56986E-03 9.62605E-04-6.93678E-04
 -1      2022 1.16734E-03-6.22780E-05-9.10417E-05
 -1      2023 6.54806E-02 4.72301E-02-8.95008E-04
 -1      2024 5.68299E-02 4.02948E-02 1.93991E-03
 -1      2025 8.33458E-02 4.29086E-02-4.57919E-04
 -1      2026 6.39875E-02 2.95549E-02-5.89041E-04
 -1      2027 2.91149E-05 1.38280E-03 7.13425E-06
 -1      2028 1.66203E-03 3.93269E-03 3.19998E-04
 -1      2029 3.42577E-02 2.54954E-02 9.84112E-04
 -1      2030 3.15952E-02 2.33731E-02 4.59972E-04
 -1      2031 5.18595E-02 3.41203E-02 8.91593E-04
 -1      2032 2.86268E-03 5.33900E-03 2.21702E-04
 -1      2033 1.38664E-02 1.43486E-02 6.07950E-04
 -1      2034 1.05156E-01 5.73993E-02 1.38613E-05
 -1      2035 8.61559E-02 5.29757E-02 9.24097E-04
 -1      2036 7.33397E-02 3.81257E-02-5.44521E-04
 -1      2037 5.74023E-02 1.68414E-02-8.18358E-04
 -1      2038 2.94463E-02 7.83051E-03-7.86067E-04
 -1      2039 4.10937E-02 9.03838E-03-7.21066E-04
 -1      2040 2.00046E-02 3.55807E-03-7.99862E-04
 -1      2041 2.13688E-02 1.69831E-02 6.01728E-04
 -1      2042 5.00059E-02 1.71389E-02-7.71521E-04
 -1      2043 5.63682E-02 3.54953E-02 7.46630E-04
 -1      2044 6.79454E-02 2.95761E-02-8.45611E-04
 -1      2045 6.25377E-02 2.51949E-02-8.57222E-04
 -1      2046 5.51664E-02 2.03556E-02-7.74263E-04
 -1      2047 9.83949E-03 1.17763E-02 6.55837E-04
 -1      2048 7.08950E-02 3.27679E-02-7.42175E-04
 -1      2049 1.00527E-01 5.40108E-02-4.48009E-04
 -1      2050 6.62836E-02 3.68560E-02-3.41383E-04
 -1      2051 5.71692E-02 3.41280E-02-2.75728E-04
 -1      2052 3.95608E-02 1.86842E-02-7.39951E-04
 -1      2053 7.53851E-02 3.59059E-02-7.09655E-04
 -1      2054-2.93929E-04-3.26988E-04 9.33930E-05
 -1      2055 1.21361E-02 6.90313E-04-1.06058E-03
 -1      2056 6.25117E-04 9.24025E-04-1.91947E-05
 -1      2057 3.97129E-03 1.57043E-04-3.23325E-04
 -1      2058 2.11920E-03 4.89664E-04 9.80599E-04
 -1      2059 2.28290E-03-3.46168E-04 5.41293E-04
 -1      2060-1.01560E-03-3.75276E-04-3.89303E-06
 -1      2061 2.07399E-04 7.91656E-04-2.77621E-05
 -1      2062 1.36603E-05 5.56922E-04 3.14278E-05
 -1      2063-5.79449E-04 6.05331E-04 2.27404E-03
 -1      2064 6.78605E-05-3.45038E-04 1.34898E-03
 -1      2065-2.16816E-04-3.07741E-04 5.71645E-03
 -1      2066 4.41197E-04 3.07095E-04 1.43575E-03
 -1      2067 6.67070E-04-1.02661E-03 2.99764E-03
 -1      2068 6.19218E-04 1.58784E-04 6.02693E-03
 -1      2069-1.63173E-03-2.11697E-03 1.31177E+00
 -1      2070-7.53836E-04-3.47431E-03 1.50622E+00
 -1      2071-5.77430E-04-2.32311E-03 1.58742E+00
 -1      2072 4.01538E-03 7.22297E-04 1.50526E+00
 -1      2073 1.87393E-03 8.08290E-04 1.31458E+00
 -1      2074 3.20090E-03-7.39104E-04 1.56743E+00
 -1      2075-6.51308E-04-3.62787E-04 7.54369E-04
 -1      2076-4.15822E-04-1.15772E-04 7.92106E-04
 -1      2077-2.39351E-03-4.07929E-05 2.16456E-03
 -1      2078-2.89524E-04 2.56052E-04 8.38202E-04
 -1      2079 1.97533E-04 3.26117E-04 1.31395E-03
 -1      2080-2.65786E-03 9.10665E-05 1.50726E-03
 -1      2081-1.65469E-03 6.21031E-05 2.35742E-03
 -1      2082-1.13497E-03-3.33438E-04 1.57575E+00
 -1      2083-1.32065E-03-9.74677E-04 1.39402E+00
 -1      2084-1.08992E-03-1.93639E-03 1.33231E+00
 -1      2085 1.09329E-03 8.74492E-04 1.42489E+00
 -1      2086 9.30776E-05 3.91233E-04 1.60972E+00
 -1      2087-1.28042E-05-4.74426E-04 1.39486E+00
 -1      2088 1.88757E-03 4.30730E-05 1.28940E+00
 -1      2089-1.12672E-02-1.75481E-03 1.88753E-02
 -1      2090-5.38232E-03-9.70701E-04 1.04578E-02
 -1      2091-3.93834E-03-1.21372E-04 5.04033E-03
 -1      2092-1.86424E-02-3.04830E-03 3.78036E-02
 -1      2093-1.10536E-02-1.92390E-03 2.76384E-02
 -1      2094-1.61487E-02-1.78406E-03 2.06638E-02
 -1      2095-2.75292E-02-5.70976E-03 6.69449E-02
 -1      2096-2.49485E-02-4.48628E-03 5.11023E-02
 -1      2097-1.62151E-02-2.80690E-03 4.14222E-02
 -1      2098-2.26107E-02-6.61191E-03 1.05048E-01
 -1      2099-2.91831E-02-6.97370E-03 8.48759E-02
 -1      2100-2.12185E-02-5.04101E-03 7.23768E-02
 -1      2101-3.91361E-02-1.23316E-02 1.52346E-01
 -1      2102-3.37682E-02-9.95258E-03 1.27630E-01
 -1      2103-3.58445E-02-9.69703E-03 1.11397E-01
 -1      2104-3.18721E-02-1.28934E-02 2.08343E-01
 -1      2105-4.48258E-02-1.50914E-02 1.79198E-01
 -1      2106-3.09166E-02-1.08671E-02 1.59528E-01
 -1      2107-5.16520E-02-2.12944E-02 2.72995E-01
 -1      2108-4.56760E-02-1.80986E-02 2.39549E-01
 -1      2109-5.12704E-02-1.90244E-02 2.16324E-01
 -1      2110-5.40683E-02-2.52761E-02 3.46736E-01
 -1      2111-6.09549E-02-2.60150E-02 3.08786E-01
 -1      2112-4.16373E-02-1.88489E-02 2.82006E-01
 -1      2113-4.36230E-02-2.43093E-02 4.29397E-01
 -1      2114-4.21566E-02-2.25265E-02 3.86975E-01
 -1      2115-6.86611E-02-3.14414E-02 3.56266E-01
 -1      2116-6.37679E-02-3.50092E-02 5.20467E-01
 -1      2117-6.13070E-02-3.25204E-02 4.73830E-01
 -1      2118-6.43630E-02-3.29988E-02 4.39133E-01
 -1      2119-7.28094E-02-4.18012E-02 6.20186E-01
 -1      2120-7.53141E-02-4.13722E-02 5.69302E-01
 -1      2121-5.01855E-02-3.01936E-02 5.30531E-01
 -1      2122-7.18269E-02-4.39691E-02 7.23819E-01
 -1      2123-8.42168E-02-4.84014E-02 6.73294E-01
 -1      2124-5.77354E-02-3.60974E-02 6.30220E-01
 -1      2125-8.90115E-02-5.38759E-02 8.26074E-01
 -1      2126-5.34578E-02-3.67984E-02 7.72674E-01
 -1      2127-9.05694E-02-5.36641E-02 7.36430E-01
 -1      2128-7.25372E-02-4.81043E-02 9.47581E-01
 -1      2129-7.25053E-02-4.73217E-02 8.84963E-01
 -1      2130-5.91552E-02-4.14257E-02 8.46556E-01
 -1      2131-8.06840E-02-5.27382E-02 1.08217E+00
 -1      2132-9.59446E-02-5.96669E-02 1.01298E+00
 -1      2133-6.12923E-02-4.39263E-02 9.69511E-01
 -1      2134-8.30027E-02-5.48646E-02 1.22141E+00
 -1      2135-6.02446E-02-4.39382E-02 1.15213E+00
 -1      2136-8.81291E-02-5.80541E-02 1.10172E+00
 -1      2137-8.90949E-02-5.77910E-02 1.36152E+00
 -1      2138-9.59204E-02-6.07831E-02 1.29317E+00
 -1      2139-6.37878E-02-4.74111E-02 1.23083E+00
 -1      2140-9.02056E-02-5.72700E-02 1.49027E+00
 -1      2141-9.98633E-02-6.21931E-02 1.42614E+00
 -1      2142-6.81686E-02-5.01891E-02 1.36177E+00
 -1      2143-5.76030E-02-4.17995E-02 1.61612E+00
 -1      2144-8.04487E-02-5.23950E-02 1.55392E+00
 -1      2145-6.03292E-02-4.64580E-02 1.49155E+00
 -1      2146-7.86416E-02-5.02291E-02 1.74039E+00
 -1      2147-7.64574E-02-4.86669E-02 1.67668E+00
 -1      2148-1.05069E-01-6.72560E-02 1.62011E+00
 -1      2149-8.11531E-02-4.88001E-02 1.86311E+00
 -1      2150-7.96313E-02-4.94199E-02 1.80485E+00
 -1      2151-5.60068E-02-4.31917E-02 1.73539E+00
 -1      2152-6.80826E-02-4.13059E-02 1.96441E+00
 -1      2153-6.75401E-02-4.27070E-02 1.91567E+00
 -1      2154-5.24945E-02-4.10921E-02 1.84338E+00
 -1      2155-3.70576E-02-2.76478E-02 2.05152E+00
 -1      2156-5.48278E-02-3.53619E-02 2.00996E+00
 -1      2157-4.21442E-02-3.50770E-02 1.93926E+00
 -1      2158-4.34426E-02-2.84469E-02 2.12349E+00
 -1      2159-4.62830E-02-2.92726E-02 2.08854E+00
 -1      2160-5.10626E-02-3.63154E-02 2.02128E+00
 -1      2161-3.18676E-02-2.17846E-02 2.17860E+00
 -1      2162-4.35903E-02-2.80947E-02 2.15307E+00
 -1      2163-3.04655E-02-2.71839E-02 2.08921E+00
 -1      2164-1.72295E-02-1.55152E-02 2.22226E+00
 -1      2165-1.97193E-02-1.71436E-02 2.20261E+00
 -1      2166-3.47840E-02-2.72116E-02 2.14196E+00
 -1      2167-1.78052E-02-1.46890E-02 2.25160E+00
 -1      2168-1.97998E-02-1.51244E-02 2.23759E+00
 -1      2169-2.62417E-02-2.20334E-02 2.18112E+00
 -1      2170-7.29433E-03-1.01236E-02 2.27023E+00
 -1      2171-1.33824E-02-1.29832E-02 2.26208E+00
 -1      2172-1.00578E-02-1.42196E-02 2.20878E+00
 -1      2173-6.10091E-03-8.67870E-03 2.28059E+00
 -1      2174-7.79095E-03-9.05188E-03 2.27561E+00
 -1      2175-8.95065E-03-1.20861E-02 2.22590E+00
 -1      2176-2.83717E-03-6.31828E-03 2.26211E+00
 -1      2177-4.59339E-03-7.77014E-03 2.28341E+00
 -1      2178-2.96880E-03-8.43401E-03 2.23614E+00
 -1      2179-1.84037E-03-4.90364E-03 2.31836E+00
 -1      2180-1.42876E-03-5.17106E-03 2.24109E+00
 -1      2181-2.10796E-03-6.86791E-03 2.21673E+00
 -1      2182-1.17629E-03-2.99919E-03 1.94510E+00
 -1      2183-1.16551E-03-4.05337E-03 2.35268E+00
 -1      2184-1.18097E-03-5.07250E-03 2.34804E+00
 -1      2185-6.98211E-04-2.41177E-03 1.51908E+00
 -1      2186-4.55704E-03-4.08240E-04 1.05001E-02
 -1      2187-6.61566E-03-9.61758E-04 1.86579E-02
 -1      2188-2.92632E-03-2.15157E-04 4.99432E-03
 -1      2189-1.20326E-02-2.59531E-03 2.75600E-02
 -1      2190-1.06819E-02-2.72033E-03 3.80462E-02
 -1      2191-1.41326E-02-2.05017E-03 2.02467E-02
 -1      2192-1.69201E-02-4.67752E-03 5.10302E-02
 -1      2193-2.42792E-02-6.79762E-03 6.62180E-02
 -1      2194-2.00839E-02-4.17444E-03 4.16319E-02
 -1      2195-2.37373E-02-7.46188E-03 8.38031E-02
 -1      2196-2.49674E-02-8.56229E-03 1.03520E-01
 -1      2197-1.93666E-02-5.42852E-03 7.18331E-02
 -1      2198-2.03595E-02-8.03364E-03 1.25833E-01
 -1      2199-3.18856E-02-1.21640E-02 1.50155E-01
 -1      2200-3.30312E-02-1.05915E-02 1.10285E-01
 -1      2201-3.93501E-02-1.56011E-02 1.76424E-01
 -1      2202-2.57612E-02-1.22510E-02 2.05122E-01
 -1      2203-2.80169E-02-1.08569E-02 1.57829E-01
 -1      2204-3.68975E-02-1.72933E-02 2.35923E-01
 -1      2205-2.90385E-02-1.54650E-02 2.68823E-01
 -1      2206-4.75606E-02-1.95473E-02 2.14104E-01
 -1      2207-4.15374E-02-2.14517E-02 3.04020E-01
 -1      2208-5.35717E-02-2.73983E-02 3.41467E-01
 -1      2209-5.30716E-02-2.39840E-02 2.79097E-01
 -1      2210-4.93945E-02-2.73878E-02 3.80912E-01
 -1      2211-5.56313E-02-3.14888E-02 4.22657E-01
 -1      2212-4.02264E-02-2.21238E-02 3.52637E-01
 -1      2213-5.04119E-02-3.07383E-02 4.66488E-01
 -1      2214-3.79533E-02-2.63522E-02 5.12480E-01
 -1      2215-4.07835E-02-2.49473E-02 4.34583E-01
 -1      2216-5.36382E-02-3.52692E-02 5.60652E-01
 -1      2217-5.56673E-02-3.75796E-02 6.10753E-01
 -1      2218-5.97754E-02-3.60415E-02 5.25174E-01
 -1      2219-4.21535E-02-3.22336E-02 6.62968E-01
 -1      2220-7.22163E-02-4.89442E-02 7.15728E-01
 -1      2221-7.48331E-02-4.65364E-02 6.23577E-01
 -1      2222-6.43251E-02-4.67717E-02 7.69039E-01
 -1      2223-6.05666E-02-4.62016E-02 8.24778E-01
 -1      2224-5.32307E-02-3.87483E-02 7.29637E-01
 -1      2225-4.50689E-02-3.89606E-02 8.85821E-01
 -1      2226-6.41350E-02-5.09845E-02 9.47366E-01
 -1      2227-7.12475E-02-5.16239E-02 8.44891E-01
 -1      2228-7.43969E-02-5.86294E-02 1.00641E+00
 -1      2229-7.05311E-02-5.78421E-02 1.07439E+00
 -1      2230-5.34397E-02-4.40945E-02 9.67208E-01
 -1      2231-8.10022E-02-6.60705E-02 1.14448E+00
 -1      2232-6.62479E-02-5.94880E-02 1.21006E+00
 -1      2233-5.90132E-02-4.99593E-02 1.09734E+00
 -1      2234-4.73769E-02-4.91503E-02 1.27707E+00
 -1      2235-4.67258E-02-5.01055E-02 1.34346E+00
 -1      2236-8.87165E-02-7.13639E-02 1.21862E+00
 -1      2237-6.40884E-02-6.38244E-02 1.40942E+00
 -1      2238-4.44643E-02-5.07368E-02 1.44872E+00
 -1      2239-8.75356E-02-7.29814E-02 1.34945E+00
 -1      2240-5.92947E-02-6.35133E-02 1.49791E+00
 -1      2241-5.87152E-02-6.59398E-02 1.61825E+00
 -1      2242-7.70388E-02-7.02771E-02 1.43719E+00
 -1      2243-3.96845E-02-5.27025E-02 1.68335E+00
 -1      2244-5.56292E-02-6.53719E-02 1.68292E+00
 -1      2245-7.68390E-02-7.60418E-02 1.68725E+00
 -1      2246-5.96764E-02-7.11815E-02 1.75477E+00
 -1      2247-3.25962E-02-5.06732E-02 1.84210E+00
 -1      2248-4.46987E-02-5.23622E-02 1.67593E+00
 -1      2249-4.16128E-02-6.13551E-02 1.89361E+00
 -1      2250-4.67034E-02-6.74897E-02 1.94376E+00
 -1      2251-6.23924E-02-7.09289E-02 1.82987E+00
 -1      2252-3.18717E-02-5.45681E-02 1.98976E+00
 -1      2253-2.72682E-02-5.13673E-02 2.03196E+00
 -1      2254-3.03210E-02-4.61667E-02 1.92599E+00
 -1      2255-3.23881E-02-5.99188E-02 2.06999E+00
 -1      2256-1.41620E-02-3.95122E-02 2.10518E+00
 -1      2257-2.39528E-02-4.18065E-02 2.00870E+00
 -1      2258-1.63913E-02-4.54593E-02 2.13497E+00
 -1      2259-1.35223E-02-4.15116E-02 2.16334E+00
 -1      2260-2.49318E-02-4.73111E-02 2.07718E+00
 -1      2261-1.22377E-02-4.21768E-02 2.18688E+00
 -1      2262-7.68596E-03-3.59439E-02 2.20743E+00
 -1      2263-1.08526E-02-3.17028E-02 2.13102E+00
 -1      2264-6.00843E-03-3.50794E-02 2.22416E+00
 -1      2265-2.93156E-03-3.10018E-02 2.23854E+00
 -1      2266-6.70731E-03-2.71822E-02 2.17185E+00
 -1      2267 2.15063E-04-2.47801E-02 2.25013E+00
 -1      2268 3.03560E-03-1.74371E-02 2.25948E+00
 -1      2269-2.34673E-03-2.15983E-02 2.20056E+00
 -1      2270 4.41356E-03-1.76937E-02 2.26600E+00
 -1      2271 4.75120E-03-1.53247E-02 2.27172E+00
 -1      2272 2.51423E-04-2.05672E-02 2.21931E+00
 -1      2273 5.39939E-03-1.37237E-02 2.27552E+00
 -1      2274 5.72811E-03-9.92570E-03 2.28008E+00
 -1      2275 2.90628E-03-1.15506E-02 2.23054E+00
 -1      2276 5.72981E-03-7.56126E-03 2.27557E+00
 -1      2277 5.48973E-03-5.46470E-03 2.32679E+00
 -1      2278 3.72300E-03-7.29051E-03 2.24705E+00
 -1      2279 5.29596E-03-3.87166E-03 2.34673E+00
 -1      2280 4.14947E-03-1.90129E-03 1.93079E+00
 -1      2281 3.51513E-03-4.10362E-03 2.34898E+00
 -1      2282 2.76834E-03-7.85896E-04 1.46612E+00
 -1      2283-4.66840E-02-4.18873E-02 1.82553E+00
 -1      2284-7.55911E-02-5.71745E-02 1.77459E+00
 -1      2285-3.69314E-02-3.63515E-02 1.91665E+00
 -1      2286-6.03113E-02-4.87729E-02 1.87213E+00
 -1      2287-6.82494E-02-5.99501E-02 1.84498E+00
 -1      2288-2.13662E-02-2.45181E-02 2.14153E+00
 -1      2289-1.65722E-02-2.23954E-02 2.12596E+00
 -1      2290-1.93900E-02-2.46916E-02 2.10630E+00
 -1      2291-4.83816E-02-4.30218E-02 2.08192E+00
 -1      2292-2.47625E-02-3.26945E-02 2.11290E+00
 -1      2293-4.64510E-03-2.07335E-02 2.17270E+00
 -1      2294-4.75508E-04-1.38512E-02 2.18058E+00
 -1      2295-1.17308E-02-2.84881E-02 2.15158E+00
 -1      2296-3.58926E-03-1.83527E-02 2.16395E+00
 -1      2297-9.11588E-03-2.03700E-02 2.16985E+00
 -1      2298-2.08860E-05-5.94257E-03 2.15444E+00
 -1      2299-1.74750E-03-8.50058E-03 2.19078E+00
 -1      2300 9.66699E-04-5.95144E-03 2.11249E+00
 -1      2301 5.83843E-05-4.93352E-03 2.20824E+00
 -1      2302-6.89205E-05-4.14759E-03 1.98953E+00
 -1      2303-8.38567E-02-6.20916E-02 1.62467E+00
 -1      2304-8.07592E-02-6.05858E-02 1.56364E+00
 -1      2305-9.31663E-02-7.07119E-02 1.53311E+00
 -1      2306-5.62129E-02-4.69919E-02 1.49783E+00
 -1      2307-5.71436E-02-4.70799E-02 1.43112E+00
 -1      2308-2.80268E-02-3.92018E-02 1.95085E+00
 -1      2309-4.16755E-02-5.13465E-02 1.98739E+00
 -1      2310-3.74815E-02-4.88837E-02 2.02066E+00
 -1      2311-1.76759E-02-3.22520E-02 2.05143E+00
 -1      2312-4.57011E-02-4.70636E-02 2.00703E+00
 -1      2313-8.92016E-02-6.23071E-02 1.23609E+00
 -1      2314-6.02458E-02-4.70370E-02 1.17690E+00
 -1      2315-9.28747E-02-6.49535E-02 1.36499E+00
 -1      2316-6.45566E-02-5.01789E-02 1.29900E+00
 -1      2317-9.83654E-02-7.07490E-02 1.26191E+00
 -1      2318-3.58186E-02-9.94553E-03 9.73036E-02
 -1      2319-2.56209E-02-8.48291E-03 1.18082E-01
 -1      2320-2.75459E-02-9.87072E-03 1.41300E-01
 -1      2321-2.93505E-02-1.12837E-02 1.66774E-01
 -1      2322-4.19605E-02-1.26549E-02 1.29135E-01
 -1      2323-4.04979E-02-1.89417E-02 2.91829E-01
 -1      2324-3.86202E-02-1.72210E-02 2.57610E-01
 -1      2325-3.66633E-02-1.54953E-02 2.25555E-01
 -1      2326-5.57176E-02-1.94920E-02 1.95411E-01
 -1      2327-5.62259E-02-2.24401E-02 2.40109E-01
 -1      2328-2.14445E-02-5.43666E-03 7.88430E-02
 -1      2329-1.93401E-02-4.30029E-03 6.16159E-02
 -1      2330-1.41927E-02-2.20254E-03 3.30566E-02
 -1      2331-2.51688E-02-4.23093E-03 4.64181E-02
 -1      2332-3.34424E-02-6.17148E-03 5.32222E-02
 -1      2333-5.35561E-02-3.45891E-02 5.86976E-01
 -1      2334-1.08025E-01-6.12543E-02 6.37093E-01
 -1      2335-4.34762E-02-2.73092E-02 4.92034E-01
 -1      2336-7.47104E-02-4.27652E-02 5.38358E-01
 -1      2337-8.04062E-02-4.56128E-02 5.63377E-01
 -1      2338-8.72480E-02-5.72436E-02 8.05213E-01
 -1      2339-5.38379E-02-4.14310E-02 8.70116E-01
 -1      2340-9.23691E-02-6.06580E-02 9.04280E-01
 -1      2341-5.47555E-02-4.29984E-02 9.31308E-01
 -1      2342-8.19642E-02-5.89969E-02 9.92090E-01
 -1      2343-4.00607E-02-2.11100E-02 3.26469E-01
 -1      2344-4.16401E-02-2.27991E-02 3.64712E-01
 -1      2345-5.90775E-02-3.11855E-02 4.05098E-01
 -1      2346-4.21331E-02-2.55582E-02 4.47473E-01
 -1      2347-6.88235E-02-3.34638E-02 3.85163E-01
 -1      2348-1.22270E-02-1.36843E-03 1.32644E-02
 -1      2349-1.15850E-02-1.61203E-03 2.27429E-02
 -1      2350-4.02483E-03-2.29415E-04 6.25790E-03
 -1      2351-1.08168E-02-6.01682E-04 8.83018E-03
 -1      2352-2.68049E-03-8.79249E-05 2.95772E-03
 -1      2353-2.58534E-03-1.03691E-04 3.98297E-03
 -1      2354-7.73200E-02-7.20604E-02 1.76748E+00
 -1      2355-4.33246E-02-4.93111E-02 1.81910E+00
 -1      2356-4.88424E-02-5.08317E-02 1.66034E+00
 -1      2357-4.60096E-02-4.97164E-02 1.70062E+00
 -1      2358-9.67140E-02-7.63293E-02 1.74482E+00
 -1      2359-1.30947E-03-8.49913E-03 2.18990E+00
 -1      2360-2.21860E-03-9.78191E-03 2.18913E+00
 -1      2361-3.39785E-03-1.13825E-02 2.18377E+00
 -1      2362-1.18564E-02-1.90061E-02 2.17607E+00
 -1      2363-3.62495E-03-1.46518E-02 2.18467E+00
 -1      2364 2.24215E-03-4.74089E-03 2.21190E+00
 -1      2365 1.83446E-03-3.19710E-03 1.99475E+00
 -1      2366 8.01248E-04-2.99979E-03 1.67682E+00
 -1      2367 1.49450E-03-2.02383E-03 1.52383E+00
 -1      2368 1.47824E-03-1.03942E-03 1.37537E+00
 -1      2369 6.56453E-04-1.01995E-03 1.29610E+00
 -1      2370-6.02889E-02-4.84544E-02 1.05465E+00
 -1      2371-6.02381E-02-4.91601E-02 1.11049E+00
 -1      2372-1.26924E-01-8.79772E-02 1.16622E+00
 -1      2373-6.40573E-02-5.33568E-02 1.22787E+00
 -1      2374-9.75397E-02-6.78684E-02 1.14137E+00
 -1      2375 1.94461E-03-7.85472E-03 2.20016E+00
 -1      2376 2.24236E-03-7.12578E-03 2.16133E+00
 -1      2377 5.55625E-04-1.16096E-02 2.18628E+00
 -1      2378 9.19826E-04-1.19190E-02 2.18820E+00
 -1      2379-7.51561E-04-1.04199E-02 2.18778E+00
 -1      2380-6.36959E-02-5.42498E-02 1.29203E+00
 -1      2381-1.25070E-01-8.99858E-02 1.35463E+00
 -1      2382-5.74483E-02-5.29426E-02 1.40559E+00
 -1      2383-5.63999E-02-5.31689E-02 1.47963E+00
 -1      2384-1.18643E-01-8.32911E-02 1.39204E+00
 -1      2385-5.55350E-02-3.56411E-02 6.40639E-01
 -1      2386-5.41490E-02-3.39453E-02 5.89946E-01
 -1      2387-6.30049E-02-4.20372E-02 7.52863E-01
 -1      2388-1.17213E-01-6.63271E-02 6.96049E-01
 -1      2389-1.01581E-01-5.86365E-02 6.64408E-01
 -1      2390-6.05190E-02-4.66806E-02 1.11695E+00
 -1      2391-1.00917E-01-6.57608E-02 1.05488E+00
 -1      2392-9.80490E-02-6.62656E-02 1.02377E+00
 -1      2393-9.38165E-02-6.15220E-02 9.91906E-01
 -1      2394-5.87121E-02-4.31614E-02 9.33776E-01
 -1      2395-7.10959E-02-3.98863E-02 5.41246E-01
 -1      2396-4.69234E-02-2.82752E-02 4.94547E-01
 -1      2397-4.55392E-02-2.65046E-02 4.49921E-01
 -1      2398-7.19791E-02-3.52477E-02 4.07105E-01
 -1      2399-7.23715E-02-3.84927E-02 4.70254E-01
 -1      2400-4.47853E-03-9.85635E-06 2.96164E-03
 -1      2401-4.58098E-03-2.10464E-04 6.42430E-03
 -1      2402-3.21962E-03-1.02470E-04 4.07986E-03
 -1      2403-1.07120E-04-1.47099E-03 1.33186E+00
 -1      2404-5.44026E-04-1.89934E-03 1.45115E+00
 -1      2405-1.25892E-04-2.09201E-03 1.56029E+00
 -1      2406-1.03732E-02-2.59203E-02 2.12113E+00
 -1      2407-8.20715E-03-2.35343E-02 2.13798E+00
 -1      2408-1.48498E-02-2.93979E-02 2.07791E+00
 -1      2409-2.01601E-02-3.54742E-02 2.10056E+00
 -1      2410-2.54317E-02-2.85158E-02 2.05677E+00
 -1      2411-2.90427E-02-3.05401E-02 2.02707E+00
 -1      2412-5.22036E-02-4.36544E-02 1.99291E+00
 -1      2413-3.35633E-02-3.41776E-02 1.95699E+00
 -1      2414-3.81722E-02-1.75743E-02 2.56284E-01
 -1      2415-7.77654E-02-3.26062E-02 2.90120E-01
 -1      2416-6.49894E-02-2.34355E-02 1.94540E-01
 -1      2417-3.62346E-02-1.57291E-02 2.24261E-01
 -1      2418-3.04073E-02-1.12404E-02 1.67741E-01
 -1      2419-2.84510E-02-9.72477E-03 1.42069E-01
 -1      2420-2.64475E-02-8.38255E-03 1.18780E-01
 -1      2421-4.66751E-02-1.14849E-02 9.76790E-02
 -1      2422-1.37758E-02-2.43595E-03 3.30081E-02
 -1      2423-2.64941E-02-4.99143E-03 4.64855E-02
 -1      2424-1.88720E-02-4.69059E-03 6.15224E-02
 -1      2425-2.08717E-02-5.76299E-03 7.85001E-02
 -1      2426-1.88860E-02-2.41144E-03 2.65344E-02
 -1      2427-1.20333E-02-1.49427E-03 2.30392E-02
 -1      2428-1.34017E-02-7.69573E-04 1.33688E-02
 -1      2429-5.09287E-02-4.40647E-02 1.72526E+00
 -1      2430-5.32536E-02-4.58385E-02 1.67764E+00
 -1      2431-8.52506E-02-6.81828E-02 1.65535E+00
 -1      2432-8.69747E-02-7.52909E-02 1.67161E+00
 -1      2433-5.73242E-02-5.52133E-02 1.60906E+00
 -1      2434-7.31914E-03-1.47767E-02 2.16763E+00
 -1      2435-9.10847E-03-1.66611E-02 2.15628E+00
 -1      2436-2.01531E-02-3.02913E-02 2.14693E+00
 -1      2437-5.50771E-02-5.83135E-02 1.86577E+00
 -1      2438-3.12151E-02-4.13466E-02 1.91020E+00
 -1      2439-5.56455E-02-5.26689E-02 1.93261E+00
 -1      2440-5.35558E-02-3.76381E-02 6.90642E-01
 -1      2441-5.47754E-02-3.93383E-02 7.45580E-01
 -1      2442-9.02226E-02-5.62709E-02 7.75599E-01
 -1      2443-5.77646E-02-4.18446E-02 8.73123E-01
 -1      2444-8.68068E-02-5.44118E-02 8.09096E-01
 -1      2445-4.78318E-02-2.45625E-02 3.66688E-01
 -1      2446-8.63001E-02-3.70665E-02 3.27933E-01
 -1      2447-7.40979E-02-3.19619E-02 3.08381E-01
 -1      2448-5.78971E-02-1.96265E-02 1.80277E-01
 -1      2449-3.41066E-02-8.27355E-03 8.73316E-02
 -1      2450-3.45865E-02-4.02308E-02 2.06656E+00
 -1      2451 3.32270E-02 2.56793E-03 1.51376E-05
 -1      2452 5.03571E-05 3.42660E-03-2.62201E-04
 -1      2453 8.70104E-03 1.57918E-02-3.17436E-04
 -1      2454 7.33148E-02 1.18760E-02 4.09670E-05
 -1      2455 2.08632E-01 7.45884E-02 4.67075E-04
 -1      2456 5.51720E-02 5.24601E-02-2.60575E-03
 -1      2457 8.72864E-02 6.41476E-02 8.25154E-05
 -1      2458 7.95222E-02 5.22143E-02 3.83324E-05
 -1      2459 2.05044E-01 1.16791E-01-1.57681E-03
 -1      2460 3.07548E-01 1.69930E-01 3.43508E-04
 -1      2461 2.89963E-01 1.36421E-01 7.76796E-04
 -1      2462 1.38619E-01 3.96831E-02-5.15748E-05
 -1      2463 2.27939E-01 1.22952E-01-5.85748E-04
 -1      2464 1.00470E-01 4.21444E-02 3.63848E-05
 -1      2465 2.19024E-01 1.15236E-01 9.92643E-05
 -1      2466 1.96775E-01 1.01056E-01 4.88660E-04
 -1      2467 2.23879E-02 1.58794E-02 5.95411E-04
 -1      2468 7.43798E-02 1.58128E-02 1.99720E-05
 -1      2469 1.32180E-03 3.71472E-03-1.17623E-04
 -1      2470 1.91579E-02 2.35042E-04-3.31009E-04
 -1      2471 1.15877E-03 3.84333E-03 1.24427E-04
 -1      2472 1.87846E-02 2.48003E-03-5.03192E-04
 -1      2473 1.64556E-01 6.68250E-02-7.73067E-05
 -1      2474 1.55309E-01 4.79926E-02-2.56124E-04
 -1      2475 6.96320E-02 7.42871E-02-2.00121E-03
 -1      2476 9.07604E-02 5.18678E-02 1.70210E-03
 -1      2477 1.70457E-01 1.24579E-01 1.32144E-03
 -1      2478 1.02376E-01 8.72913E-02 8.44098E-04
 -1      2479 1.16695E-01 6.12795E-02-1.13099E-03
 -1      2480 1.91700E-01 9.92979E-02-1.83547E-03
 -1      2481 1.41870E-01 4.82731E-02 4.59778E-05
 -1      2482 2.93499E-01 1.47348E-01-9.94444E-04
 -1      2483 2.21132E-01 1.21127E-01-6.61071E-04
 -1      2484 2.38237E-01 1.12989E-01 2.02443E-04
 -1      2485 2.70173E-01 1.58332E-01 8.77071E-04
 -1      2486 1.96884E-01 9.10086E-02 1.46777E-04
 -1      2487 1.78482E-01 6.77859E-02 2.18688E-04
 -1      2488 2.14812E-01 1.06538E-01 2.97196E-04
 -1      2489 2.13502E-01 9.21984E-02-1.52888E-04
 -1      2490 2.38817E-01 1.21827E-01-1.80011E-04
 -1      2491 2.01598E-02 8.18388E-05 3.11405E-04
 -1      2492-3.38361E-03 2.08279E-03-5.33213E-05
 -1      2493 1.15528E-02 3.21089E-02-1.13235E-03
 -1      2494 9.86272E-02 2.61924E-02-1.33933E-04
 -1      2495 5.14034E-02 5.04726E-03-9.90423E-05
 -1      2496 4.16813E-03 6.80695E-03-1.06824E-04
 -1      2497 1.75380E-02 2.40163E-03 4.99747E-04
 -1      2498 2.41067E-02 3.70435E-02-6.47595E-04
 -1      2499 6.24795E-02 1.39277E-02-2.11503E-04
 -1      2500-2.95002E-03 6.00294E-04 5.00791E-05
 -1      2501 2.23023E-01 1.42665E-01-1.30947E-03
 -1      2502 1.87592E-01 1.27516E-01-8.44272E-04
 -1      2503 4.83397E-02 8.18738E-03-2.03629E-05
 -1      2504-1.71400E-03 1.28502E-02-4.34940E-04
 -1      2505 4.90660E-03 6.99415E-03-7.35747E-05
 -1      2506 2.59023E-01 1.30306E-01-1.93548E-03
 -1      2507 2.57854E-01 1.28938E-01-2.34346E-03
 -1      2508 1.80980E-02 1.23834E-02-7.32592E-04
 -1      2509 8.42328E-03 2.69654E-02 8.65217E-04
 -1      2510 2.37049E-02 4.05696E-02 1.25069E-03
 -1      2511 3.76961E-02 2.17979E-02-1.15727E-03
 -1      2512 1.14137E-01 2.74578E-02-3.15749E-05
 -1      2513 9.63400E-02 1.81895E-02-5.54492E-04
 -1      2514 1.97186E-01 1.02269E-01-1.57576E-04
 -1      2515 1.58305E-01 7.59351E-02 1.92002E-03
 -1      2516 4.29248E-02 5.68113E-02 2.57513E-03
 -1      2517 6.18830E-02 3.16666E-02-2.42034E-03
 -1      2518 1.28765E-01 6.43489E-02 1.26496E-03
 -1      2519 9.29233E-02 8.83200E-02-1.55318E-03
 -1      2520 1.31988E-01 1.05086E-01-1.92242E-03
 -1      2521 1.61427E-01 4.94186E-02-3.87812E-05
 -1      2522 2.18922E-01 1.33024E-01-1.90043E-03
 -1      2523 1.31529E-01 5.33208E-02-1.65070E-04
 -1      2524 1.82474E-01 7.88508E-02-1.37736E-04
 -1      2525 1.15604E-01 4.01975E-02-3.56281E-04
 -1      2526 2.09127E-01 1.01827E-01 1.16624E-03
 -1      2527 2.17358E-01 1.02769E-01-8.21158E-04
 -1      2528 1.45093E-01 5.38537E-02-5.01202E-04
 -1      2529 1.65803E-01 7.76141E-02-4.90531E-04
 -1      2530 2.56367E-01 1.24980E-01 4.34599E-05
 -1      2531 2.34800E-01 1.29802E-01 1.05556E-03
 -1      2532 2.50746E-01 1.60255E-01 9.09329E-04
 -1      2533 1.11826E-01 3.07626E-02 4.77199E-04
 -1      2534 7.98734E-02 1.80580E-02 1.35600E-04
 -1      2535 4.99849E-02 5.04049E-03 1.54409E-04
 -1      2536 5.46863E-02 9.77348E-03-6.62103E-05
 -1      2537 2.02070E-01 1.00871E-01 1.65728E-03
 -1      2538 2.53008E-01 1.23342E-01 2.58030E-03
 -1      2539 1.96160E-02 1.53665E-02 6.39151E-04
 -1      2540 4.07196E-02 2.36067E-02 1.63992E-03
 -1      2541 2.15675E-01 1.49230E-01 2.20004E-03
 -1      2542 7.01145E-02 1.17240E-02 2.26156E-04
 -1      2543 1.24943E-01 3.08742E-02 2.87935E-04
 -1      2544-3.49215E-04 1.21362E-02 6.31082E-04
 -1      2545 1.71533E-01 7.59364E-02-1.09943E-04
 -1      2546 7.49894E-02 7.94303E-02 1.03944E-03
 -1      2547 1.77050E-01 8.67388E-02 2.25641E-03
 -1      2548 9.84826E-02 4.73675E-02-1.01083E-03
 -1      2549 1.40899E-01 1.04515E-01-1.19777E-03
 -1      2550 8.89449E-02 2.76110E-02 5.87350E-05
 -1      2551 1.86864E-01 7.53648E-02-3.30607E-04
 -1      2552 1.69603E-01 7.40067E-02 1.01239E-04
 -1      2553 1.88627E-01 7.71035E-02 3.40194E-04
 -1      2554 2.23676E-01 1.19992E-01 7.14146E-04
 -1      2555 2.47780E-01 1.18804E-01-4.99871E-04
 -1      2556 2.39830E-01 1.17118E-01 7.34510E-04
 -1      2557 2.15354E-01 1.25445E-01-4.23739E-04
 -1      2558-2.48946E-03 5.19837E-03 1.80192E-04
 -1      2559 1.01593E-01 8.54187E-02-8.98008E-04
 -1      2560 1.52329E-01 7.40254E-02-2.02827E-03
 -1      2561 1.24866E-01 1.04924E-01 1.54455E-03
 -1      2562 2.12230E-01 1.01677E-01 4.94973E-04
 -1      2563-2.23383E-01-1.17661E-01 4.93191E-04
 -1      2564-2.15872E-01-1.18406E-01-4.77364E-05
 -1      2565-2.14577E-01-1.20372E-01 5.12391E-04
 -1      2566-1.45444E-01-7.61887E-02 3.21736E-04
 -1      2567-1.72200E-01-9.34068E-02-1.53866E-04
 -1      2568-2.73565E-01-1.39556E-01-8.65719E-05
 -1      2569-1.48467E-01-8.28431E-02 5.25841E-04
 -1      2570-1.82326E-01-1.00381E-01 1.81321E-04
 -1      2571-2.91101E-01-1.54719E-01 4.03463E-04
 -1      2572 1.11385E-04-1.99432E-03 8.61311E-05
 -1      2573-1.69261E-03-2.33602E-03 5.19282E-05
 -1      2574 7.77329E-05-1.67686E-03-5.76995E-05
 -1      2575-1.61474E-03-2.34544E-03-9.28847E-05
 -1      2576-1.53725E-03-2.28465E-03-3.37306E-05
 -1      2577 8.74786E-07-3.03207E-03-3.69358E-05
 -1      2578-3.42477E-04-1.06510E-03 7.42496E-05
 -1      2579 5.98604E-04-1.22660E-03 3.05105E-06
 -1      2580-3.11091E-04-1.98435E-03 6.60212E-05
 -1      2581 7.35003E-04-3.35209E-03-1.84142E-05
 -1      2582-1.02245E-02 1.66273E-04 7.48469E-05
 -1      2583-2.96036E-02 2.22726E-04-1.99194E-04
 -1      2584-7.95757E-03-2.60936E-04 1.42412E-05
 -1      2585-1.00676E-02-6.30447E-04 2.54916E-04
 -1      2586-2.59881E-02-2.94174E-03-1.75080E-04
 -1      2587-9.77225E-03-2.57217E-05-7.01315E-05
 -1      2588-8.23378E-03 2.06784E-04 2.84731E-06
 -1      2589-1.09191E-02 4.38199E-04 4.11964E-05
 -1      2590-1.15635E-02 6.09161E-04-1.50425E-04
 -1      2591-1.17070E-02 1.29940E-03 7.14589E-05
 -1      2592-2.98904E-02 1.75003E-04 2.39428E-04
 -1      2593-2.27179E-02-5.03229E-02 1.92507E-03
 -1      2594-2.90879E-02-5.18135E-02 1.74308E-04
 -1      2595-3.94196E-02-5.74075E-02 9.66249E-04
 -1      2596-2.48564E-02-4.01994E-02 5.90001E-04
 -1      2597-1.72841E-02-2.51695E-02 1.81261E-03
 -1      2598-2.32373E-02-4.99318E-02-1.41844E-03
 -1      2599-5.58806E-02-5.91197E-02 2.09489E-03
 -1      2600-1.99277E-02-3.61873E-02-1.01667E-03
 -1      2601-3.90536E-02-4.81210E-02 2.57996E-03
 -1      2602-2.66219E-02-2.82839E-02 9.12048E-04
 -1      2603-2.72490E-02-6.03053E-04 3.43011E-05
 -1      2604-1.72239E-02-3.00820E-04 1.69862E-05
 -1      2605-2.52202E-02-1.68862E-03 1.54088E-04
 -1      2606-1.54715E-02-1.61785E-03 1.73147E-04
 -1      2607 1.06894E-03-1.83643E-02 9.88724E-04
 -1      2608-3.09961E-03-2.02153E-02 4.63552E-04
 -1      2609 2.71675E-03-1.70248E-02 5.39164E-04
 -1      2610 3.48362E-03-1.42473E-02 1.51506E-04
 -1      2611-6.02734E-05-1.38058E-02 4.54687E-04
 -1      2612-1.08127E-03-1.26427E-02 3.85879E-04
 -1      2613-7.55350E-03-2.12401E-02 1.06779E-04
 -1      2614-3.07438E-03-1.05848E-02 1.03254E-04
 -1      2615-2.84210E-03-1.37658E-02 2.75878E-04
 -1      2616-1.30155E-01-3.81483E-02-2.04838E-04
 -1      2617-1.26203E-01-3.72162E-02-1.91507E-04
 -1      2618-1.20272E-01-3.31776E-02 1.55389E-04
 -1      2619-7.92734E-02-2.12689E-02-2.60686E-04
 -1      2620-1.36274E-01-3.54069E-02-3.31160E-04
 -1      2621-1.29740E-01-3.59064E-02-2.28832E-04
 -1      2622-1.23210E-01-3.66074E-02-3.92344E-04
 -1      2623-1.12153E-01-3.27690E-02-1.91444E-04
 -1      2624-7.42431E-02-2.01416E-02-1.84180E-04
 -1      2625-1.01876E-01-2.88119E-02-4.09484E-04
 -1      2626-9.81405E-02-2.52511E-02-2.33100E-04
 -1      2627-8.16161E-02-2.34566E-02-2.45226E-04
 -1      2628-9.52534E-02-2.48830E-02-4.35286E-04
 -1      2629-1.61236E-02-2.46974E-04-3.56328E-05
 -1      2630-1.49908E-02-1.10609E-04 1.14897E-04
 -1      2631-2.26335E-02-4.08182E-02 2.43113E-03
 -1      2632-2.40590E-02-3.71558E-02 3.17539E-04
 -1      2633-3.36742E-02-2.87379E-02 4.26755E-04
 -1      2634-3.17715E-02-2.86025E-02 5.27536E-04
 -1      2635-5.46499E-03-1.17193E-02 1.49876E-04
 -1      2636-6.01792E-04-8.32995E-03 9.21799E-05
 -1      2637-4.89185E-03-1.02787E-02 2.77401E-04
 -1      2638-5.41507E-02-1.98168E-02 1.70292E-04
 -1      2639-9.89676E-02-3.61964E-02 6.40648E-05
 -1      2640-1.12580E-01-4.40796E-02-1.40773E-04
 -1      2641-1.08901E-01-4.16027E-02 9.62243E-05
 -1      2642-1.71978E-01-6.62386E-02-1.47012E-04
 -1      2643-4.43787E-02-1.56475E-02 5.32647E-05
 -1      2644-1.16987E-01-4.29653E-02 1.97287E-04
 -1      2645-1.45183E-01-5.04835E-02 2.02234E-04
 -1      2646-6.18943E-02-1.75917E-02 3.00385E-04
 -1      2647-4.51021E-02-1.24538E-02 8.33167E-05
 -1      2648-1.03779E-01-3.11381E-02 2.89170E-04
 -1      2649-9.91236E-02-2.82918E-02 4.73699E-04
 -1      2650-1.55636E-01-4.59470E-02 2.42196E-04
 -1      2651-5.52991E-02-1.90465E-02 2.72078E-04
 -1      2652-9.54769E-02-3.28275E-02 1.02028E-04
 -1      2653-1.36995E-01-4.42336E-02 1.91299E-04
 -1      2654-9.76573E-02-3.18026E-02 2.15316E-04
 -1      2655-1.64010E-01-5.35093E-02-1.97589E-05
 -1      2656-1.36349E-01-7.02915E-02-5.60715E-06
 -1      2657-1.24325E-01-6.27277E-02 5.32760E-05
 -1      2658-6.09260E-02-2.27826E-02 1.97461E-04
 -1      2659-2.34122E-01-1.16203E-01-1.84000E-04
 -1      2660-1.82541E-01-9.27208E-02-1.55878E-04
 -1      2661-7.47258E-02-3.59863E-02 1.90398E-04
 -1      2662-2.04753E-01-9.56994E-02 4.08926E-04
 -1      2663-1.64581E-01-8.02360E-02 2.18375E-04
 -1      2664-8.44117E-02-4.14133E-02 2.88690E-04
 -1      2665-4.73025E-02-1.67656E-02 8.96921E-05
 -1      2666-1.37505E-01-4.81250E-02 4.20476E-04
 -1      2667-1.64059E-01-5.95829E-02 3.66766E-04
 -1      2668-1.36105E-01-6.50597E-02 1.84764E-05
 -1      2669-6.19559E-02-2.91907E-02 1.86005E-05
 -1      2670-9.12224E-02-4.82927E-02 3.73048E-04
 -1      2671-1.58444E-01-8.64062E-02 2.34329E-04
 -1      2672-2.35191E-01-1.12688E-01 5.58733E-04
 -1      2673-1.72522E-01-9.06921E-02 9.74739E-04
 -1      2674-2.79657E-01-1.44426E-01 9.78152E-04
 -1      2675-4.68958E-02-1.26477E-02-5.02282E-05
 -1      2676-1.21558E-01-3.42787E-02 3.52280E-04
 -1      2677-1.02801E-01-3.00582E-02 1.89602E-04
 -1      2678-1.47418E-01-7.21904E-02 1.95952E-04
 -1      2679-6.54622E-02-2.22651E-02 2.51261E-04
 -1      2680-8.79658E-02-3.24886E-02-2.28812E-04
 -1      2681-4.99790E-02-1.88276E-02 1.51330E-05
 -1      2682-8.79117E-02-3.20406E-02-1.36274E-04
 -1      2683-1.01257E-01-3.77133E-02-1.54740E-04
 -1      2684-1.56051E-01-5.36929E-02-3.19903E-04
 -1      2685-5.23779E-02-1.88882E-02 2.54223E-05
 -1      2686-9.36612E-02-3.27553E-02-1.83777E-04
 -1      2687-1.22592E-01-4.40448E-02-2.76205E-04
 -1      2688-9.37217E-02-3.16838E-02-1.71709E-04
 -1      2689-9.25606E-02-3.63049E-02-1.13389E-04
 -1      2690-5.16040E-02-1.98834E-02 6.55428E-05
 -1      2691-1.30617E-01-5.23382E-02 3.70600E-04
 -1      2692-1.02555E-01-4.19485E-02 5.92345E-05
 -1      2693-3.05408E-02-2.70631E-02 2.84690E-04
 -1      2694-4.43081E-02-3.52605E-02 4.23212E-04
 -1      2695-5.65138E-02-4.98114E-02 1.80128E-03
 -1      2696-9.36811E-02-8.72626E-02 1.09163E-03
 -1      2697-5.64518E-02-6.24215E-02 1.05500E-03
 -1      2698-3.49217E-02-2.11739E-02-8.97939E-05
 -1      2699-4.60989E-02-3.19555E-02-5.36213E-04
 -1      2700-8.84722E-02-4.12505E-02-8.43188E-04
 -1      2701-6.21547E-02-4.19601E-02-1.73184E-03
 -1      2702-1.09142E-01-6.65752E-02-1.43865E-03
 -1      2703-3.15588E-02-4.57332E-02 5.05851E-04
 -1      2704-3.81871E-02-4.42099E-02 1.32316E-03
 -1      2705-2.69313E-02-3.29910E-02-6.92378E-04
 -1      2706-4.65284E-02-6.08085E-02 7.35792E-04
 -1      2707-5.92994E-02-7.94894E-02-1.49402E-03
 -1      2708-4.00463E-02-4.01766E-02 1.61372E-03
 -1      2709-5.35215E-02-2.38506E-02-1.29431E-03
 -1      2710-3.92820E-02-1.57636E-02 8.86095E-04
 -1      2711-7.81257E-02-3.03132E-02 6.08876E-04
 -1      2712-6.94490E-02-2.94747E-02-7.45244E-04
 -1      2713-7.96788E-02-3.42700E-02-1.14225E-03
 -1      2714-1.76703E-01-7.88333E-02 1.34817E-03
 -1      2715-1.40160E-01-6.13388E-02 1.80575E-04
 -1      2716-2.31709E-01-1.27737E-01 2.41681E-03
 -1      2717-1.64152E-01-6.98681E-02-3.14173E-04
 -1      2718-1.00372E-01-5.86492E-02 7.37746E-04
 -1      2719-7.42225E-02-4.03316E-02 2.57907E-04
 -1      2720-1.46107E-01-8.37581E-02 1.20855E-03
 -1      2721-1.87959E-01-8.89032E-02 1.05917E-03
 -1      2722-4.25325E-02-1.24887E-02-1.55288E-04
 -1      2723-8.93437E-02-2.86037E-02 7.05920E-05
 -1      2724-1.48250E-01-4.60904E-02 3.61226E-05
 -1      2725-9.34299E-02-2.89553E-02-1.69225E-04
 -1      2726-4.04769E-02-1.26987E-02-7.91879E-05
 -1      2727-5.70870E-02-1.85132E-02 1.74700E-04
 -1      2728-1.03641E-01-3.44098E-02-3.32160E-04
 -1      2729-9.36652E-02-3.20847E-02 7.29875E-06
 -1      2730-1.01122E-01-3.31627E-02-1.25229E-04
 -1      2731-5.75849E-02-1.92527E-02 6.73390E-05
 -1      2732-1.03169E-01-3.23821E-02-2.26881E-05
 -1      2733-1.18008E-01-3.83385E-02 3.04110E-04
 -1      2734-1.84971E-01-9.72234E-02 1.96593E-04
 -1      2735-2.23874E-01-1.05654E-01 6.62491E-04
 -1      2736-9.58859E-02-4.47261E-02-4.48118E-04
 -1      2737-1.83661E-01-8.68618E-02 1.83372E-04
 -1      2738-2.02546E-01-9.34883E-02-3.90989E-04
 -1      2739-1.45639E-01-9.32386E-02-6.68184E-05
 -1      2740-8.12801E-02-5.31969E-02 3.19443E-04
 -1      2741-1.57652E-01-9.87828E-02-5.94814E-05
 -1      2742-1.71058E-01-1.11434E-01 4.37847E-04
 -1      2743-2.65227E-01-1.53940E-01-1.29738E-03
 -1      2744-8.70550E-02-5.06208E-02-1.34531E-04
 -1      2745-2.09005E-01-1.14762E-01-7.91317E-04
 -1      2746-1.64943E-01-9.54462E-02-1.14416E-03
 -1      2747-2.08374E-01-1.29765E-01-7.39500E-04
 -1      2748-5.66403E-02-1.98439E-02-6.34005E-05
 -1      2749-9.99694E-02-3.59666E-02-2.10004E-04
 -1      2750-1.49317E-01-5.33654E-02-5.08625E-04
 -1      2751-1.13107E-01-4.17898E-02-2.32801E-04
 -1      2752-1.80422E-01-6.62517E-02-4.04697E-04
 -1      2753-1.24104E-01-6.08535E-02-2.37562E-04
 -1      2754-7.01271E-02-3.47895E-02 2.29549E-05
 -1      2755-1.26974E-01-6.21070E-02-4.93177E-05
 -1      2756-1.70257E-01-8.42297E-02-2.99384E-05
 -1      2757-2.21898E-01-1.03173E-01-4.25198E-04
 -1      2758-7.35329E-02-3.51464E-02 5.73249E-05
 -1      2759-1.31703E-01-6.15613E-02-1.89390E-04
 -1      2760-1.48071E-01-7.08448E-02-3.36374E-04
 -1      2761-1.34461E-01-6.22544E-02-2.20229E-04
 -1      2762-1.06094E-01-3.70622E-02-2.19944E-04
 -1      2763-5.90706E-02-2.02405E-02 7.40592E-05
 -1      2764-1.19549E-01-4.30640E-02-1.60731E-04
 -1      2765-1.27687E-01-4.49743E-02-2.83821E-04
 -1      2766-1.41814E-01-6.23834E-02-2.53688E-04
 -1      2767-8.04629E-02-3.57250E-02 7.47576E-05
 -1      2768-1.47755E-01-6.40334E-02 6.48601E-05
 -1      2769-1.66699E-01-7.29863E-02 2.51599E-04
 -1      2770-2.32517E-01-1.03390E-01-4.83143E-05
 -1      2771-1.24339E-01-6.53918E-02 5.51191E-04
 -1      2772-9.13345E-02-4.66726E-02 6.48002E-05
 -1      2773-1.97390E-01-9.78104E-02 7.74009E-04
 -1      2774-3.05609E-01-1.57843E-01 1.22163E-03
 -1      2775-1.96428E-01-1.02504E-01 9.34830E-04
 -1      2776-1.79814E-01-9.02380E-02 1.88482E-04
 -1      2777-1.45355E-01-6.59521E-02-2.41148E-04
 -1      2778-8.14439E-02-3.64326E-02 1.81970E-04
 -1      2779-1.74562E-01-7.88869E-02-3.39064E-04
 -1      2780-2.45585E-01-1.16369E-01-6.04855E-04
 -1      2781-1.60711E-01-7.31961E-02-1.64814E-04
 -1      2782-7.81187E-02-3.60061E-02-1.86486E-05
 -1      2783-1.37553E-01-6.47096E-02-2.28868E-04
 -1      2784-1.52473E-01-7.19143E-02-3.25598E-04
 -1      2785-2.03120E-01-9.34871E-02-5.72081E-04
 -1      2786-1.01906E-01-2.60091E-02 3.99393E-04
 -1      2787-5.48078E-02-1.47284E-02 1.76840E-04
 -1      2788-1.23868E-01-3.16660E-02 3.22293E-05
 -1      2789-1.27411E-01-6.47745E-02-2.29761E-04
 -1      2790-7.11905E-02-3.59039E-02 3.90371E-06
 -1      2791-1.39165E-01-7.22030E-02 3.04628E-05
 -1      2792-1.50282E-01-7.74320E-02 2.96994E-04
 -1      2793-8.30172E-02-5.01509E-02 4.26951E-04
 -1      2794-1.16106E-01-7.04743E-02 1.56164E-04
 -1      2795-1.73810E-01-1.07020E-01-1.92914E-04
 -1      2796-1.81683E-01-1.10950E-01-2.83636E-04
 -1      2797-2.90163E-01-1.65098E-01-4.35133E-04
 -1      2798-1.16284E-01-6.37762E-02 4.47119E-04
 -1      2799-1.27495E-01-6.95582E-02 1.87513E-04
 -1      2800-2.41971E-02-3.16192E-03-1.63607E-05
 -1      2801-5.33060E-02-6.63520E-03-8.90262E-05
 -1      2802-2.20379E-02-3.20490E-03-9.92134E-05
 -1      2803-7.98582E-02-1.29970E-02 1.95416E-04
 -1      2804-6.37715E-02-9.84828E-03 3.82071E-04
 -1      2805-1.40775E-01-4.92661E-02 6.36170E-04
 -1      2806-4.96086E-02-1.72146E-02-1.14146E-04
 -1      2807-1.30480E-01-4.32015E-02-4.01057E-04
 -1      2808-1.54023E-01-5.05286E-02-3.52658E-05
 -1      2809-4.55260E-02-1.55038E-02-1.16760E-04
 -1      2810-2.65260E-03-4.17516E-03 1.02357E-04
 -1      2811-1.15887E-02-7.86803E-03-1.78595E-04
 -1      2812-3.35125E-03-3.78128E-03-2.43989E-05
 -1      2813-1.38204E-02-1.31463E-02 7.07501E-04
 -1      2814-4.23266E-02-1.69569E-02-1.94812E-04
 -1      2815-1.54877E-01-5.96242E-02 1.15553E-04
 -1      2816-1.19950E-01-4.82133E-02 7.49728E-05
 -1      2817-1.23657E-01-4.77108E-02-1.31126E-04
 -1      2818-4.51138E-02-1.66014E-02-7.99984E-05
 -1      2819-4.09080E-02-1.55600E-02-1.26345E-04
 -1      2820-1.13354E-01-4.28321E-02 4.30066E-04
 -1      2821-4.26568E-02-3.55858E-02 7.86682E-04
 -1      2822-7.07970E-02-7.66859E-02 3.20038E-04
 -1      2823-8.84551E-02-7.89252E-02 1.79861E-03
 -1      2824-4.70682E-02-2.95429E-02-6.39932E-04
 -1      2825-9.61012E-02-4.31314E-02-5.19223E-05
 -1      2826-1.03405E-01-5.84693E-02-1.60044E-03
 -1      2827-6.63647E-02-8.02501E-02 9.67371E-04
 -1      2828-3.56051E-02-4.15464E-02-4.85227E-05
 -1      2829-5.07079E-02-2.13311E-02-1.27018E-04
 -1      2830-9.74085E-02-3.76618E-02-4.62231E-04
 -1      2831-1.33887E-01-4.35884E-02-4.30785E-05
 -1      2832-4.83417E-02-1.58429E-02-1.81636E-04
 -1      2833-6.73221E-02-2.95174E-02-2.78374E-04
 -1      2834-2.16896E-01-9.62433E-02-1.44334E-04
 -1      2835-1.87438E-01-8.18227E-02 7.93451E-05
 -1      2836-6.36573E-02-2.89485E-02-8.00429E-05
 -1      2837-1.82905E-01-8.11825E-02-3.00054E-04
 -1      2838-1.60284E-01-7.94435E-02 5.17038E-04
 -1      2839-5.77803E-02-2.85592E-02-2.00846E-04
 -1      2840-7.55717E-02-3.95326E-02 7.50205E-06
 -1      2841-2.20273E-01-1.06008E-01 3.05337E-04
 -1      2842-2.83109E-01-1.46818E-01 2.26794E-03
 -1      2843-5.89533E-02-3.04773E-02-2.90198E-04
 -1      2844-2.12695E-01-1.06155E-01 8.52596E-06
 -1      2845-1.66131E-01-8.60236E-02 1.60730E-04
 -1      2846-1.93954E-01-8.77872E-02 8.00393E-04
 -1      2847-6.84858E-02-3.10387E-02-1.70186E-04
 -1      2848-2.25331E-01-1.06081E-01 6.27659E-04
 -1      2849-6.24195E-02-3.02448E-02-4.54869E-05
 -1      2850-1.70693E-01-8.56695E-02 6.74898E-05
 -1      2851-1.31834E-02-3.08451E-02 5.05679E-04
 -1      2852-1.94762E-02-2.56747E-02 4.62312E-04
 -1      2853-3.79523E-02-9.66487E-03 2.01262E-04
 -1      2854-1.04487E-01-2.62971E-02 1.46522E-04
 -1      2855-2.17957E-01-1.05335E-01 2.79753E-04
 -1      2856-1.14775E-01-5.92294E-02 3.43045E-04
 -1      2857-2.41831E-01-1.21103E-01 2.49048E-04
 -1      2858-1.87785E-01-8.72717E-02 6.47650E-04
 -1      2859-9.63896E-02-5.34030E-02 7.31419E-04
 -1      2860-2.28139E-01-1.19340E-01 2.24481E-03
 -1      2861-8.01199E-02-3.78831E-02 2.50170E-04
 -1      2862-2.26724E-01-1.05020E-01 1.16791E-03
 -1      2863-6.74809E-02-3.06812E-02 6.87856E-04
 -1      2864-1.92286E-01-8.33974E-02 3.83717E-04
 -1      2865-9.84536E-03-6.82142E-03 2.58440E-04
 -1      2866-4.40639E-03-2.85267E-03-7.74280E-05
 -1      2867-3.48725E-03-1.91518E-03 2.03740E-04
 -1      2868-1.11901E-02-5.30552E-03 1.15742E-04
 -1      2869-9.53967E-02-4.51158E-02-5.75200E-04
 -1      2870-1.32727E-01-6.41823E-02 6.47020E-04
 -1      2871-2.41177E-01-1.13942E-01 1.77629E-04
 -1      2872-2.10178E-01-9.96781E-02 5.40157E-04
 -1      2873-7.72452E-02-3.54679E-02 2.76790E-04
 -1      2874-1.34035E-01-6.17692E-02 9.67768E-06
 -1      2875-1.94253E-01-8.51796E-02 9.73109E-05
 -1      2876-1.40462E-01-6.29454E-02 1.20057E-04
 -1      2877-3.88865E-02-5.38732E-03 2.58651E-04
 -1      2878-2.28702E-02-3.13498E-03 2.35064E-04
 -1      2879-2.09292E-02-3.18906E-03 1.39848E-04
 -1      2880-6.20255E-02-9.35163E-03 4.90384E-04
 -1      2881-6.00735E-02-2.24556E-02-7.01134E-05
 -1      2882-3.28505E-02-3.43968E-02 1.82471E-03
 -1      2883-4.25437E-02-2.16390E-02-2.04437E-03
 -1      2884-1.68899E-01-9.04888E-02 5.77610E-04
 -1      2885-1.06408E-01-6.16710E-02-1.49993E-04
 -1      2886-1.91781E-01-1.12948E-01-6.81265E-04
 -1      2887-2.28810E-01-1.26501E-01-7.09900E-04
 -1      2888-1.76456E-01-9.95503E-02 1.45139E-04
 -1      2889-6.70359E-02-2.29061E-02-1.31581E-04
 -1      2890-1.23380E-01-6.72042E-02-3.26035E-05
 -1      2891-8.67162E-02-4.84678E-02-2.27377E-04
 -1      2892-1.90540E-01-1.05564E-01-8.55838E-04
 -1      2893-2.10020E-01-1.25673E-01-8.19193E-05
 -1      2894-9.24758E-02-4.16611E-02-2.17966E-04
 -1      2895-6.67256E-03-1.48917E-02 6.94173E-04
 -1      2896-1.44115E-03-4.12625E-03 2.05790E-04
 -1      2897-2.07781E-03-3.01459E-03 1.71922E-05
 -1      2898-1.24787E-03-3.38373E-03-1.34491E-04
 -1      2899-8.41588E-02-4.14840E-02-1.05118E-04
 -1      2900-3.89924E-04-4.30085E-03 1.38792E-04
 -1      2901 1.98362E-03-3.93568E-03 7.52467E-05
 -1      2902-5.27903E-02-1.40260E-02 9.30274E-05
 -1      2903-9.17220E-02-4.15075E-02 3.60295E-04
 -1      2904-9.91479E-02-5.69266E-02-8.39468E-04
 -1      2905-1.08644E-01-5.29321E-02 5.89747E-04
 -1      2906-6.54831E-02-3.04944E-02 3.50733E-05
 -1      2907-1.90295E-01-8.66474E-02 3.92093E-04
 -1      2908-1.21967E-01-5.83818E-02 3.66821E-04
 -1      2909-2.23705E-01-1.05113E-01-2.20455E-04
 -1      2910-1.09267E-01-5.41509E-02 1.45995E-03
 -1      2911-1.94963E-01-1.30931E-01 5.71516E-04
 -1      2912-6.83201E-02-4.55464E-02-5.94830E-04
 -1      2913-2.64072E-01-1.61255E-01-1.46620E-03
 -1      2914-8.94335E-02-4.38964E-02 2.29539E-03
 -1      2915-7.14170E-02-4.25737E-02-2.12878E-04
 -1      2916-1.71965E-01-1.10183E-01-2.18904E-04
 -1      2917-9.10669E-02-2.67874E-02-1.93833E-04
 -1      2918-3.41295E-02-9.60264E-03-7.09896E-05
 -1      2919-1.16656E-01-3.20416E-02-2.42647E-04
 -1      2920-1.95775E-01-1.13210E-01-4.42818E-04
 -1      2921-1.11233E-01-6.06661E-02-2.55754E-04
 -1      2922-4.94328E-02-1.53022E-02-7.14109E-09
 -1      2923-8.79537E-02-2.70475E-02-3.70704E-04
 -1      2924-5.45142E-02-6.63040E-03 3.47808E-04
 -1      2925-6.31104E-02-7.07366E-03 1.34615E-04
 -1      2926-3.73391E-02-3.88621E-03-9.01813E-05
 -1      2927-4.85424E-03 6.96636E-05-1.93538E-04
 -1      2928-7.27207E-03-1.42909E-04 2.02961E-04
 -1      2929-3.95346E-03-1.31973E-04 1.82620E-05
 -1      2930-2.48019E-02-2.67066E-03 1.99995E-04
 -1      2931-4.29779E-03 3.53976E-04-1.69584E-04
 -1      2932-7.96571E-02-2.11694E-02-4.52298E-04
 -1      2933-3.05583E-03-6.03809E-03 4.24355E-04
 -1      2934-6.38643E-03-6.40914E-03 2.54236E-04
 -1      2935-6.75186E-03-1.08879E-02 9.48490E-04
 -1      2936-6.04716E-03 4.36681E-04-3.40976E-05
 -1      2937-4.53272E-02-5.28155E-03 2.11203E-04
 -1      2938-3.52214E-02-3.95422E-03 2.96683E-04
 -1      2939-9.85569E-02-6.19069E-02-9.48069E-04
 -1      2940-8.25232E-03-5.55389E-03-5.20323E-04
 -1      2941-4.16474E-03-3.55287E-03-1.44812E-04
 -1      2942 3.97305E-04-4.01520E-05 5.38403E-05
 -1      2943-1.01497E-03-1.07506E-03 1.59022E-04
 -1      2944-3.07551E-04-4.46209E-04-1.05704E-04
 -1      2945-4.82813E-02-1.45589E-02-1.95122E-04
 -1      2946-3.15517E-04-5.83094E-06-1.84112E-04
 -1      2947 1.43180E-03-1.89011E-03 2.29091E-05
 -1      2948 1.56879E-03 6.88023E-04-1.11289E-04
 -1      2949-2.73862E-02-3.57138E-03 1.46419E-04
 -1      2950-3.98564E-03-3.69579E-03 5.37663E-04
 -1      2951-2.16813E-02-6.44540E-03-5.51302E-04
 -1      2952-1.91722E-02-1.12093E-02-8.48269E-04
 -1      2953-2.30936E-02-8.28652E-03-1.63668E-04
 -1      2954-2.90097E-02-1.05073E-02-5.82896E-04
 -1      2955-1.09714E-02-5.87418E-03-9.14714E-04
 -1      2956-2.87090E-02-1.36498E-02-4.69296E-04
 -1      2957-8.71968E-02-3.64466E-02-5.88321E-04
 -1      2958-9.13201E-02-3.75399E-02-1.19484E-03
 -1      2959-1.58985E-01-6.87909E-02-2.35325E-03
 -1      2960-1.29261E-01-5.94426E-02-1.57335E-03
 -1      2961-1.39872E-01-6.64497E-02-6.68448E-04
 -1      2962-1.21192E-02-2.89210E-03-1.02734E-03
 -1      2963-1.45715E-02-7.67476E-03-1.24345E-04
 -1      2964-9.21464E-03-3.08394E-03-7.98377E-04
 -1      2965-1.18832E-02-6.30824E-03-8.69063E-04
 -1      2966 9.98385E-04-6.70740E-03 5.50707E-05
 -1      2967 6.94372E-05-8.05647E-03 4.03159E-04
 -1      2968 2.59911E-03-5.13147E-03 3.18079E-04
 -1      2969-3.53335E-02-3.67412E-03 1.98216E-04
 -1      2970-3.30057E-02-4.12235E-03 5.02797E-05
 -1      2971-2.84313E-02-4.15846E-03 1.08307E-05
 -1      2972-3.75131E-03 1.19291E-04-6.81791E-05
 -1      2973-5.26027E-03 7.53665E-05 3.35337E-05
 -1      2974 9.45687E-04 5.33711E-04 2.00707E-05
 -1      2975 3.00131E-04 1.23863E-04 1.58006E-04
 -1      2976-3.51799E-02-1.98131E-03-5.40568E-05
 -1      2977-3.81407E-02-2.62161E-03 4.17395E-05
 -1      2978-3.14320E-02-7.07425E-04 4.00442E-05
 -1      2979-6.39983E-02-1.20071E-02 9.48300E-06
 -1      2980-6.23000E-02-1.16165E-02 2.41926E-04
 -1      2981-3.68788E-02-6.02774E-03 1.98242E-04
 -1      2982-5.71030E-02-9.08731E-03 1.54605E-04
 -1      2983-3.54368E-02-5.85096E-03 1.75513E-04
 -1      2984-5.76627E-02-1.10024E-02 2.84329E-04
 -1      2985-1.53692E-01-1.02999E-01-1.00754E-03
 -1      2986-1.79373E-01-1.19545E-01-1.00950E-03
 -1      2987-1.43296E-01-8.79817E-02-1.19793E-03
 -1      2988-1.10647E-01-7.17192E-02 4.68839E-04
 -1      2989-2.09472E-01-1.38930E-01 1.08431E-04
 -1      2990-1.70627E-01-1.22640E-01-1.17364E-03
 -1      2991-3.50510E-03-3.77428E-03 2.10959E-04
 -1      2992-1.04010E-03-4.73080E-03-1.64342E-04
 -1      2993-1.60042E-03-4.60321E-03-2.38697E-04
 -1      2994-7.38341E-02-5.64730E-02 9.39351E-04
 -1      2995-1.57833E-01-1.30957E-01-1.18553E-03
 -1      2996-1.28152E-01-1.01846E-01-1.04454E-03
 -1      2997-9.11095E-03 1.22686E-05 8.79454E-05
 -1      2998-1.84419E-01-1.25448E-01 2.85682E-04
 -1      2999-2.11491E-01-1.26549E-01 4.59504E-04
 -1      3000-1.22095E-01-7.91904E-02-1.75251E-03
 -1      3001-1.24664E-01-8.32319E-02 7.06843E-04
 -1      3002-2.40098E-01-1.41102E-01 9.99351E-04
 -1      3003-2.09725E-01-1.30182E-01 1.56457E-03
 -1      3004-4.05308E-02-8.61082E-03 2.37806E-05
 -1      3005-4.96875E-02-7.21656E-03-1.10264E-04
 -1      3006-3.02159E-02-5.87875E-03-1.87715E-06
 -1      3007-3.28985E-02-7.33033E-03-2.17039E-04
 -1      3008-7.40524E-02-1.38881E-02-1.25859E-04
 -1      3009-5.42968E-02-1.00939E-02-1.02278E-04
 -1      3010-1.94931E-01-1.15843E-01 8.44967E-04
 -1      3011-1.28943E-01-7.47569E-02 6.24671E-04
 -1      3012-1.32645E-01-7.72085E-02-3.12791E-04
 -1      3013-1.15269E-01-8.81196E-02-1.76529E-03
 -1      3014-1.51359E-01-1.12857E-01-1.19367E-03
 -1      3015-1.30411E-01-1.13710E-01-7.93605E-04
 -1      3016-1.47635E-01-1.20476E-01-3.18946E-03
 -1      3017-4.37982E-02-5.93992E-03-3.48039E-04
 -1      3018-4.37360E-02-6.26686E-03-2.93782E-04
 -1      3019-3.57326E-02-5.84259E-03-1.54976E-04
 -1      3020-4.61548E-03-3.66711E-03 8.27715E-05
 -1      3021-9.96265E-03-6.18720E-03 3.52085E-04
 -1      3022-1.50071E-01-6.08563E-02 2.83377E-03
 -1      3023-1.79538E-01-8.05291E-02 2.04832E-03
 -1      3024-1.01781E-02-1.11027E-02 2.20239E-04
 -1      3025-5.13180E-02-1.08860E-02 1.70220E-04
 -1      3026-4.66759E-02-8.38487E-03 1.48268E-04
 -1      3027-8.04008E-02-3.67073E-02 5.87486E-04
 -1      3028-1.58144E-01-7.16844E-02 1.41967E-03
 -1      3029-8.58610E-02-2.26769E-02 4.30982E-04
 -1      3030-9.82878E-02-4.69253E-02 5.01778E-04
 -1      3031-1.81211E-01-8.50901E-02 1.39488E-03
 -1      3032-9.78983E-02-2.92251E-02 1.71724E-04
 -1      3033-9.76044E-02-2.89923E-02 8.00630E-05
 -1      3034-5.93506E-02-1.58661E-02 1.23468E-04
 -1      3035 2.13389E-03-6.91992E-04 2.11170E-05
 -1      3036-1.50318E-01-9.92138E-02 4.15806E-04
 -1      3037-1.57221E-01-1.07942E-01 3.42612E-04
 -1      3038-1.06523E-01-6.64431E-02 1.48565E-04
 -1      3039-1.69709E-01-8.96803E-02 6.88485E-04
 -1      3040-9.46251E-02-5.22699E-02-3.45491E-04
 -1      3041-1.64737E-01-9.81074E-02-5.90810E-04
 -1      3042-2.61866E-02-3.90272E-03-1.76741E-05
 -1      3043-5.54827E-02-9.16541E-03 1.77053E-04
 -1      3044-8.20894E-02-2.06773E-02 2.22091E-04
 -1      3045-5.55516E-02-1.55665E-02 2.05798E-04
 -1      3046-4.27843E-02-1.08545E-02-2.95214E-05
 -1      3047-7.98105E-02-1.93394E-02-1.54902E-06
 -1      3048-5.72830E-02-1.37308E-02 9.39663E-05
 -1      3049-3.42550E-02-7.19220E-03 1.50736E-05
 -1      3050-3.21101E-02-7.11675E-03 6.59549E-06
 -1      3051-1.62907E-01-9.11440E-02 8.64036E-05
 -1      3052-9.89926E-02-6.42946E-02 5.68173E-04
 -1      3053-1.65940E-01-1.12961E-01-1.80505E-03
 -1      3054-1.65551E-01-1.15480E-01 4.67317E-04
 -1      3055-1.81933E-01-1.21621E-01 1.93428E-03
 -1      3056-5.38071E-02-9.04754E-03 4.34371E-04
 -1      3057-5.20544E-02-9.72825E-03-3.43505E-04
 -1      3058-4.01937E-02-8.21567E-03-3.05065E-04
 -1      3059-7.93459E-02-1.64691E-02-3.14618E-04
 -1      3060-7.53610E-02-1.70675E-02-3.75547E-04
 -1      3061-6.40434E-02-1.35291E-02-4.70728E-04
 -1      3062-1.55151E-01-8.50693E-02-3.80026E-04
 -1      3063-1.46470E-01-8.25346E-02-3.46473E-04
 -1      3064-2.08523E-01-1.09207E-01-5.55519E-04
 -1      3065-1.41514E-01-9.14117E-02 9.78719E-04
 -1      3066-1.86693E-01-1.17319E-01 9.17895E-04
 -1      3067-7.31104E-02-2.38361E-02-2.69065E-04
 -1      3068-1.49326E-01-7.34361E-02 1.52399E-04
 -1      3069-3.31209E-02-7.16999E-03-9.31808E-05
 -1      3070-5.06179E-02-1.19775E-02 2.50957E-06
 -1      3071-4.00494E-02-1.07161E-02-1.41258E-04
 -1      3072-7.14689E-02-1.89352E-02-3.00320E-04
 -1      3073-4.73205E-02-1.15745E-02 4.09837E-06
 -1      3074-9.12821E-02-3.02678E-02-7.19290E-05
 -1      3075-5.60444E-02-1.67300E-02 8.70727E-06
 -1      3076-1.40714E-01-7.30914E-02 2.66348E-04
 -1      3077-1.00861E-01-3.28863E-02-1.63689E-04
 -1      3078-1.75861E-02-3.28990E-02-1.03261E-03
 -1      3079-4.61888E-02-5.30622E-02-1.24278E-03
 -1      3080-3.00367E-02-4.71042E-02-1.26938E-03
 -1      3081-3.65524E-02-1.74679E-02 1.64301E-03
 -1      3082-2.73925E-02-1.28200E-02-1.93446E-03
 -1      3083-4.96315E-02-2.03001E-02 1.21039E-03
 -1      3084-3.26170E-02-1.26476E-02 1.34761E-03
 -1      3085-5.86915E-02-3.69065E-02 1.05789E-03
 -1      3086-2.15173E-02-2.31467E-02-5.29976E-04
 -1      3087-3.14703E-02-2.40121E-02-4.91049E-04
 -1      3088-3.88412E-02-3.95470E-02-1.83863E-04
 -1      3089-2.38692E-02-2.58694E-02 2.57180E-04
 -1      3090-2.83567E-02-2.05154E-02-5.46964E-04
 -1      3091-4.52155E-02-3.06650E-02 3.88997E-05
 -1      3092-7.27170E-02-4.67872E-02 6.67022E-04
 -1      3093-5.52256E-02-3.71456E-02 1.63497E-04
 -1      3094-8.47285E-02-4.92929E-02 1.02829E-03
 -1      3095-6.55515E-02-5.68352E-02-5.32635E-04
 -1      3096-5.33443E-02-4.03611E-02-1.27963E-04
 -1      3097-7.19862E-02-6.62898E-02-1.01366E-03
 -1      3098-5.44490E-02-7.16037E-02-4.80873E-04
 -1      3099-4.84712E-02-5.10132E-02 1.50707E-03
 -1      3100-8.33036E-02-3.19878E-02 5.83313E-04
 -1      3101-6.43572E-02-2.96957E-02-1.53699E-03
 -1      3102-1.07307E-01-3.40817E-02 1.44427E-04
 -1      3103-1.10218E-01-4.21170E-02-5.80127E-06
 -1      3104-1.03004E-01-4.21069E-02 1.61400E-04
 -1      3105-1.59954E-01-1.01421E-01 8.29238E-04
 -1      3106-1.68469E-01-9.64707E-02 2.21727E-04
 -1      3107-1.52883E-01-6.64890E-02 1.93428E-04
 -1      3108-1.43971E-01-6.44503E-02 7.86761E-06
 -1      3109-3.74610E-02-2.79941E-02 1.13650E-03
 -1      3110-3.75639E-02-1.47409E-02 1.11192E-04
 -1      3111-4.44987E-02-2.51491E-02 7.65415E-04
 -1      3112-3.08045E-02-3.63683E-02-1.55922E-03
 -1      3113-1.78991E-02-4.14429E-02 6.96914E-05
 -1      3114-3.03245E-02-4.38356E-02-1.06918E-03
 -1      3115-2.62938E-02-3.16349E-02-9.38942E-04
 -1      3116-3.21835E-02-2.53342E-02 6.18573E-04
 -1      3117-6.45880E-02-1.15043E-02-2.32352E-04
 -1      3118-6.28620E-02-1.13993E-02-4.89558E-04
 -1      3119-3.41045E-02-6.56658E-03-1.51234E-04
 -1      3120-1.63854E-01-7.45410E-02 5.09710E-04
 -1      3121-9.04666E-02-3.34179E-02 3.02875E-04
 -1      3122-9.76190E-02-3.31061E-02 2.75060E-04
 -1      3123-2.44180E-02-4.02339E-03-1.19575E-04
 -1      3124-5.00533E-02-9.42237E-03-1.77092E-04
 -1      3125-1.30266E-01-6.39385E-02 3.91280E-04
 -1      3126-1.56348E-01-7.37918E-02 3.20785E-04
 -1      3127-7.32853E-02-2.18833E-02-2.86614E-04
 -1      3128-5.14517E-02-1.59247E-02 1.39366E-04
 -1      3129-1.14238E-01-4.20614E-02 3.38757E-04
 -1      3130-1.21613E-01-4.35169E-02 3.31225E-04
 -1      3131-1.62806E-01-8.08852E-02 2.78208E-04
 -1      3132-1.74352E-01-8.50083E-02 2.36431E-04
 -1      3133-2.20304E-01-1.09757E-01 1.46218E-04
 -1      3134-1.28147E-01-6.53734E-02-1.79948E-04
 -1      3135-1.52798E-01-1.01949E-01-6.74051E-04
 -1      3136-1.94895E-01-1.07995E-01 2.01513E-04
 -1      3137-2.03338E-01-1.14855E-01 3.34132E-04
 -1      3138-1.32867E-01-7.06131E-02 1.10924E-04
 -1      3139-7.42527E-02-2.55537E-02-2.86022E-03
 -1      3140-4.65308E-02-6.37299E-02 1.66059E-03
 -1      3141-9.10958E-02-3.55387E-02-2.40716E-04
 -1      3142-3.65641E-02-4.70392E-03 2.78936E-04
 -1      3143-2.02835E-01-1.04795E-01-4.79341E-04
 -1      3144-2.15991E-01-1.09738E-01-6.20965E-04
 -1      3145-1.35048E-01-6.97602E-02-1.94267E-04
 -1      3146-1.09510E-01-3.71685E-02-4.40912E-04
 -1      3147-1.39438E-01-6.45657E-02 2.69478E-04
 -1      3148-1.84423E-01-1.12590E-01 1.65556E-04
 -1      3149-1.26418E-01-7.40301E-02-2.88912E-04
 -1      3150-2.16822E-01-1.02547E-01-3.73140E-04
 -1      3151-1.42450E-01-6.88895E-02 3.49054E-04
 -1      3152-7.85601E-03 2.51581E-03 1.74582E-04
 -1      3153-5.78209E-03 2.96070E-03-3.29066E-04
 -1      3154-6.67901E-03 1.84638E-03 2.64216E-05
 -1      3155-7.33504E-03 1.78185E-03-2.42158E-04
 -1      3156-8.17175E-03 7.80087E-04-2.73739E-04
 -1      3157-9.20965E-02-3.64221E-02 2.88056E-04
 -1      3158-1.50207E-01-6.59448E-02 6.47231E-04
 -1      3159-4.03086E-02-9.35815E-03 3.56655E-05
 -1      3160-4.38687E-02-9.74222E-03 6.10744E-05
 -1      3161-1.07185E-01-3.55578E-02 4.87234E-04
 -1      3162-2.52234E-02-1.95295E-02-9.18194E-04
 -1      3163-9.02226E-03-7.56157E-03-2.57592E-04
 -1      3164-2.92517E-02-1.94222E-02-5.84603E-04
 -1      3165-1.09068E-02-3.60191E-03 3.41540E-04
 -1      3166-1.76801E-01-7.75739E-02-1.24698E-03
 -1      3167-2.12392E-01-1.09838E-01-9.19699E-04
 -1      3168-8.12796E-02-3.61589E-02 8.81266E-04
 -1      3169-1.55877E-01-6.75142E-02-3.43663E-04
 -1      3170-2.57501E-01-1.28332E-01-1.55141E-03
 -1      3171-8.64098E-02-4.13015E-02-1.33927E-03
 -1      3172-4.10800E-02-7.48940E-03-1.65443E-04
 -1      3173-5.33893E-02-1.07115E-02-1.47274E-04
 -1      3174-1.50497E-01-9.31040E-02-1.12058E-03
 -1      3175-1.78132E-01-8.25158E-02 7.57120E-04
 -1      3176-8.59992E-02-5.45937E-02 2.87098E-04
 -1      3177-6.08533E-02-5.22857E-02-1.39548E-03
 -1      3178-7.99446E-02-6.23160E-02-1.70487E-04
 -1      3179-6.91026E-02-4.09842E-02 1.35270E-03
 -1      3180-9.54363E-02-3.77909E-02-7.19683E-04
 -1      3181-7.57893E-02-2.88417E-02 7.34299E-04
 -1      3182-6.66736E-02-7.59867E-02 1.04069E-03
 -1      3183-5.08509E-02-6.16997E-02-9.36283E-04
 -1      3184-1.51265E-01-6.70140E-02-5.34804E-04
 -1      3185-1.86253E-01-9.59328E-02 9.79332E-05
 -1      3186-1.53579E-01-8.47751E-02 6.08122E-04
 -1      3187-1.82280E-01-9.79834E-02-1.53788E-04
 -1      3188-1.61731E-01-8.21877E-02-2.77987E-04
 -1      3189-6.62108E-03-5.48201E-03 8.77772E-05
 -1      3190-4.74275E-03-9.60184E-03-5.41163E-04
 -1      3191-7.20556E-03-4.38394E-03-4.69059E-04
 -1      3192-1.19413E-02-1.23627E-02 5.35181E-05
 -1      3193-7.57774E-03-6.96480E-03-1.86545E-05
 -1      3194-1.27659E-01-6.58669E-02 4.10456E-04
 -1      3195-1.71273E-01-9.92239E-02-9.19045E-04
 -1      3196-1.46232E-01-8.65547E-02 2.91638E-04
 -1      3197-3.23985E-02-7.08267E-03 9.45737E-05
 -1      3198-2.00901E-01-9.50728E-02 1.91581E-04
 -1      3199-1.71542E-01-8.07464E-02-1.64278E-04
 -1      3200-4.00103E-02-9.07667E-03-2.92501E-04
 -1      3201-6.63902E-02-1.59097E-02-2.12540E-04
 -1      3202 2.52342E-03-2.47348E-03 2.74415E-04
 -1      3203 2.96816E-03-5.62807E-03 1.49297E-05
 -1      3204-1.42356E-02-3.14836E-03-7.28046E-05
 -1      3205-2.27620E-02-4.08026E-03-1.06869E-05
 -1      3206-3.16397E-02-6.65445E-03 9.84286E-06
 -1      3207-8.28629E-04-1.07626E-04 2.84533E-04
 -1      3208-1.14042E-03-6.05919E-04-5.47087E-06
 -1      3209-5.05184E-04 6.19538E-05 1.08260E-04
 -1      3210-1.15593E-03-1.19776E-03-1.72773E-04
 -1      3211-1.44364E-03-1.49922E-03-1.75771E-04
 -1      3212-7.75462E-02-1.43588E-02-1.87252E-04
 -1      3213-3.00241E-02-6.12053E-03-1.79689E-04
 -1      3214-1.08921E-01-2.44782E-02-2.19747E-04
 -1      3215-6.77435E-03-1.48139E-03 8.17868E-06
 -1      3216-9.43026E-03-2.80295E-03-2.39932E-04
 -1      3217-1.26106E-02-2.82150E-03 1.64835E-05
 -1      3218 1.57809E-04 9.65036E-04 2.13900E-04
 -1      3219 7.18320E-04 7.80380E-04 2.46169E-04
 -1      3220-3.70530E-04-4.34787E-04 2.71713E-05
 -1      3221 9.05151E-04-1.91446E-04 2.04614E-04
 -1      3222-8.90310E-03-2.51594E-03 1.55919E-04
 -1      3223 2.12920E-03-1.81798E-03 2.21052E-04
 -1      3224 1.89196E-03-3.48733E-03-1.55869E-04
 -1      3225 3.05002E-03-1.65494E-03-5.14091E-05
 -1      3226 2.21735E-03-2.58663E-03 3.39101E-05
 -1      3227-1.59661E-03-5.04570E-03 1.16659E-04
 -1      3228-2.94657E-03-3.36758E-03 4.70361E-05
 -1      3229-1.33369E-03-3.60872E-03 3.95739E-04
 -1      3230-7.28140E-02-4.32603E-02-3.10942E-04
 -1      3231-1.37499E-01-8.83198E-02-1.00974E-03
 -1      3232-1.02942E-01-3.29426E-02-9.44994E-05
 -1      3233-1.07459E-01-3.33256E-02-1.77846E-05
 -1      3234-1.62088E-02-1.91525E-04-1.25836E-04
 -1      3235-2.47269E-02-1.67194E-03-1.75508E-04
 -1      3236-3.65716E-02-2.49484E-03-3.55258E-04
 -1      3237-7.69328E-03-2.54313E-04-3.36169E-05
 -1      3238-1.37718E-02-1.39402E-03-1.59939E-04
 -1      3239-9.84152E-03-6.09848E-04-2.76202E-04
 -1      3240-9.72951E-03-5.66712E-03-8.21543E-04
 -1      3241-1.57224E-01-6.97941E-02-1.54050E-03
 -1      3242-2.21407E-01-1.16428E-01-5.78938E-04
 -1      3243-1.14745E-01-4.90132E-02-1.35301E-03
 -1      3244-1.40929E-01-6.41986E-02-8.98269E-04
 -1      3245-2.94688E-01-1.51344E-01-1.31871E-04
 -1      3246-1.77821E-01-8.19335E-02-1.65319E-03
 -1      3247-2.85093E-02-2.09699E-02 1.89262E-04
 -1      3248-2.76654E-02-2.10919E-02-6.05623E-04
 -1      3249-5.28073E-02-3.57230E-02-5.17065E-04
 -1      3250-3.08234E-02-1.32074E-02-1.09295E-03
 -1      3251-3.38464E-02-1.25613E-02-1.46296E-03
 -1      3252-1.33857E-01-7.05142E-02-4.13574E-05
 -1      3253-1.71895E-01-9.10250E-02-8.91895E-04
 -1      3254-1.44738E-01-7.87305E-02-6.13136E-04
 -1      3255-1.04972E-01-5.81746E-02 1.36058E-04
 -1      3256-1.86937E-03-5.96349E-03 1.72334E-04
 -1      3257-7.82077E-03-3.71983E-03 4.22117E-04
 -1      3258-1.36593E-01-1.11977E-01 1.38459E-03
 -1      3259-9.81003E-02-7.33269E-02-9.58959E-04
 -1      3260-1.33002E-03-1.14486E-02 4.22351E-04
 -1      3261 3.96309E-04-8.27835E-03-9.92859E-04
 -1      3262 2.26885E-03-9.43396E-03 1.03184E-04
 -1      3263-2.46193E-03-1.35306E-02-4.48997E-04
 -1      3264 6.28513E-04-1.00854E-02-6.26343E-04
 -1      3265-9.96971E-03 1.63337E-04-8.06751E-05
 -1      3266-5.56464E-02-3.80302E-02-1.75194E-03
 -1      3267-5.71720E-02-4.01755E-02-5.44674E-04
 -1      3268-5.23529E-02-2.84357E-02-1.34094E-03
 -1      3269-6.06624E-02-2.47977E-02-6.23055E-04
 -1      3270-3.18612E-02-6.12247E-03 2.21824E-06
 -1      3271-6.32524E-03-3.97849E-03-4.04799E-04
 -1      3272-1.01706E-02-4.73041E-03-8.35892E-04
 -1      3273-4.48446E-02-6.04678E-03 4.40500E-04
 -1      3274-3.36106E-02-4.60918E-03-2.74480E-04
 -1      3275-5.10779E-02-8.58058E-03-4.10253E-04
 -1      3276-7.44312E-02-1.15173E-02-9.39446E-05
 -1      3277-7.43832E-02-1.85753E-02-2.71648E-04
 -1      3278-3.58984E-02-4.89387E-03 8.97597E-05
 -1      3279-5.45286E-02-8.92581E-03-5.59554E-05
 -1      3280-7.99169E-02-1.95455E-02-3.43629E-05
 -1      3281-1.47844E-02-3.54840E-03 4.49962E-04
 -1      3282-1.65624E-02-2.44979E-03 4.25897E-04
 -1      3283-1.69854E-02-3.14045E-03 7.32800E-05
 -1      3284-2.38932E-02-4.63030E-03 1.83298E-05
 -1      3285-1.99981E-02-2.89549E-03 5.06645E-05
 -1      3286 2.97901E-03-1.87869E-03-4.50978E-05
 -1      3287 1.19219E-03-4.01001E-03-1.93811E-04
 -1      3288 2.21736E-03-2.32027E-03-1.04706E-04
 -1      3289 2.12364E-03-2.67339E-03-1.41897E-04
 -1      3290 4.37591E-03-2.71719E-03 3.59212E-05
 -1      3291 4.32681E-03-3.80349E-03 1.68388E-04
 -1      3292 3.43334E-03-4.28010E-03 1.62535E-04
 -1      3293-1.11592E-03-1.70301E-03-2.15812E-04
 -1      3294-3.61200E-03-3.00469E-03 9.10140E-05
 -1      3295-5.83564E-03 2.17572E-03 3.10533E-04
 -1      3296-4.79918E-03 1.39316E-04 2.35365E-04
 -1      3297-1.07755E-02 2.53970E-03 2.69906E-04
 -1      3298-5.95750E-03 8.27028E-04 7.58178E-05
 -1      3299-1.34169E-03-1.12997E-03 8.56960E-06
 -1      3300-1.96657E-03-1.55786E-03 4.85368E-05
 -1      3301-1.12311E-01-9.74938E-02-1.05295E-03
 -1      3302-6.70765E-03 2.80115E-04 1.12662E-04
 -1      3303-9.78706E-03-2.43738E-03 5.07442E-05
 -1      3304-3.62112E-02-2.30388E-03-1.13749E-04
 -1      3305-3.82826E-02-2.31722E-03-4.88762E-05
 -1      3306-2.70409E-02-3.80388E-04-3.86901E-05
 -1      3307-1.20725E-03-8.12020E-04-1.19147E-04
 -1      3308-3.67320E-02-1.15242E-02 1.26691E-03
 -1      3309-5.22905E-02-1.69160E-02 2.43730E-03
 -1      3310-1.59325E-02-3.89761E-02-1.02182E-03
 -1      3311-2.63025E-02-5.21835E-02-2.60336E-03
 -1      3312-2.01888E-02-3.61899E-02-1.16817E-03
 -1      3313-3.10220E-02-4.62531E-02-6.37027E-04
 -1      3314-3.51805E-02-1.62847E-02 1.10931E-03
 -1      3315-4.85304E-02-2.30762E-02 5.21795E-04
 -1      3316-3.46749E-02-2.31665E-03 3.22657E-04
 -1      3317 1.92009E-04 9.92037E-04-2.15108E-04
 -1      3318-8.73711E-04-1.98489E-04-2.39370E-04
 -1      3319-2.89046E-04-3.88039E-04 2.02326E-06
 -1      3320 8.74231E-04 8.77314E-04-2.77810E-04
 -1      3321 9.77221E-04-2.30646E-04-1.84952E-04
 -1      3322-1.79532E-02 7.06644E-05-3.27528E-04
 -1      3323-1.89242E-02 1.63851E-04-2.74841E-04
 -1      3324-2.03391E-02-1.20161E-03-2.52192E-04
 -1      3325-2.30267E-02-1.34288E-03 1.52434E-05
 -1      3326-2.78979E-02-1.60754E-03-2.54809E-04
 -1      3327-5.02365E-03-7.07708E-03-2.97635E-04
 -1      3328-2.17930E-03-4.24597E-03-1.00825E-04
 -1      3329-1.92935E-03-9.37431E-03-7.14554E-05
 -1      3330-2.95350E-03-7.84051E-03-1.69004E-04
 -1      3331-1.01404E-02-1.22622E-02-5.03627E-05
 -1      3332-3.09603E-03-9.36753E-03-2.65458E-04
 -1      3333 4.76921E-04-1.33133E-03-1.37579E-04
 -1      3334-5.28656E-04-1.56311E-03-4.77802E-05
 -1      3335-1.63238E-01-6.92546E-02 1.69407E-04
 -1      3336-1.51182E-01-8.30373E-02-2.71817E-03
 -1      3337-1.57452E-01-7.67731E-02-1.32202E-03
 -1      3338-2.01239E-01-1.04366E-01-1.78523E-03
 -1      3339-2.14131E-01-9.97528E-02 1.60125E-04
 -1      3340-2.00443E-01-9.85453E-02-9.34084E-04
 -1      3341-1.49686E-01-8.30359E-02-7.56574E-04
 -1      3342-2.01069E-01-1.05526E-01-1.65988E-04
 -1      3343-1.38469E-01-1.05602E-01-1.61564E-03
 -1      3344-8.77983E-02-6.98656E-02 1.53574E-03
 -1      3345-5.94173E-03-3.99674E-03-6.33367E-04
 -1      3346-7.83655E-03-3.87856E-03 7.56663E-05
 -1      3347-5.99698E-03-3.06334E-03-5.49454E-04
 -1      3348-5.64049E-03-3.05539E-03-5.45321E-05
 -1      3349-7.83022E-03-1.43772E-03-5.72583E-04
 -1      3350-1.44988E-03-2.68287E-03-1.88902E-04
 -1      3351-1.77659E-03-1.93567E-03 9.14335E-06
 -1      3352-1.30141E-03-2.37343E-03-2.15565E-04
 -1      3353-3.39528E-03-3.27241E-04-1.16380E-04
 -1      3354-1.50287E-03 1.44137E-04-4.92899E-06
 -1      3355-5.72526E-03-5.15734E-04-4.76843E-04
 -1      3356-4.12172E-03 1.05972E-04 7.03413E-05
 -1      3357-5.38242E-03 2.75057E-05 7.71439E-05
 -1      3358-3.02483E-02-6.35936E-03-1.27125E-05
 -1      3359-3.58848E-02-4.12546E-03-1.23723E-05
 -1      3360-2.44995E-02-3.59351E-03-2.11725E-05
 -1      3361-7.73783E-04-3.24807E-03-1.94561E-05
 -1      3362-3.74665E-04-3.14760E-03-2.03113E-04
 -1      3363-3.94481E-04-1.70802E-03-8.82472E-05
 -1      3364-2.60560E-04-2.00239E-03-4.90489E-05
 -1      3365-2.51613E-03-2.94073E-03-1.60196E-04
 -1      3366-3.33867E-02-3.32946E-03-2.25693E-04
 -1      3367-1.20126E-03-7.12229E-03-7.64154E-05
 -1      3368-7.99097E-02-1.85818E-02 2.61524E-04
 -1      3369-5.87883E-02-1.31990E-02 3.08215E-04
 -1      3370-8.91979E-02-2.17489E-02 1.13838E-04
 -1      3371-5.72916E-02-1.24499E-02 1.72479E-04
 -1      3372-9.70520E-02-1.99540E-02 4.74618E-04
 -1      3373-7.67111E-02-1.54898E-02 3.67242E-04
 -1      3374-3.45499E-03-7.63874E-03-2.08330E-04
 -1      3375-6.65518E-03-2.93774E-02 5.34460E-04
 -1      3376-7.90022E-03-2.14030E-02 2.26867E-04
 -1      3377-4.29882E-03-2.31160E-02-2.47651E-04
 -1      3378-9.50252E-03-3.21023E-02-3.43522E-04
 -1      3379-1.57666E-02-3.35686E-02-7.59715E-04
 -1      3380-9.45342E-03-2.13185E-02 2.74222E-04
 -1      3381-1.52581E-02-2.25578E-02 2.98596E-04
 -1      3382-1.43158E-02-1.40873E-02 5.84057E-04
 -1      3383-1.14171E-02-1.58748E-02 2.01388E-04
 -1      3384-1.46201E-02-1.67698E-02 2.06039E-04
 -1      3385-2.70456E-02-1.77311E-02 6.82415E-04
 -1      3386-2.18177E-02-1.97120E-02 2.30467E-04
 -1      3387-8.39236E-02-2.01000E-02 2.36100E-04
 -1      3388-4.55788E-02-9.69217E-03 2.27959E-04
 -1      3389-5.69311E-02-1.09604E-02 2.60325E-04
 -1      3390-4.21857E-02-1.29535E-02 1.71667E-05
 -1      3391-5.67781E-02-4.39694E-02-3.21094E-04
 -1      3392-2.19926E-02-2.68230E-02 4.20041E-04
 -1      3393-2.83961E-02-1.89384E-02 6.65465E-04
 -1      3394-2.57498E-02-2.24307E-02-5.92451E-04
 -1      3395-3.11837E-02-1.41109E-02-3.76345E-04
 -1      3396-6.14012E-02-4.00963E-02 3.90026E-04
 -1      3397-1.58669E-03 1.53799E-04 7.31012E-06
 -1      3398-3.41621E-03-3.29948E-04 1.18136E-04
 -1      3399-5.47167E-03 3.20064E-05-8.59494E-05
 -1      3400-4.45448E-03 1.44455E-04-8.77325E-05
 -1      3401-6.03129E-03-5.16749E-04 4.90998E-04
 -1      3402-6.97147E-03-2.31192E-02 4.77803E-04
 -1      3403-1.81278E-02-3.51244E-02 7.32952E-04
 -1      3404-1.56124E-02-2.93343E-02 9.84457E-05
 -1      3405-1.39337E-02-1.74216E-02 5.54750E-04
 -1      3406-2.26983E-02-2.15939E-02 9.62687E-05
 -1      3407-8.15396E-02-4.55200E-02 1.64439E-04
 -1      3408-3.43175E-02-3.76036E-03 2.70417E-04
 -1      3409-4.48844E-03-5.70564E-03 4.57286E-05
 -1      3410-4.05334E-02-1.32764E-02-8.64547E-05
 -1      3411-5.02279E-02-2.20118E-02-1.37508E-03
 -1      3412-4.04958E-02-1.91676E-02-8.16655E-04
 -1      3413-4.27875E-02-1.38704E-02-8.25331E-04
 -1      3414-4.15751E-02-1.40877E-02-2.03625E-03
 -1      3415-4.37304E-02-5.15410E-03-8.38229E-05
 -1      3416-4.56679E-02-5.04954E-03 3.93089E-05
 -1      3417-4.92574E-02-6.34978E-03-3.61168E-04
 -1      3418-8.74697E-02-4.27284E-02 3.19303E-05
 -1      3419 4.00395E-03 1.03857E-03-6.07036E-06
 -1      3420 4.24691E-03 8.77068E-04 2.02161E-05
 -1      3421 3.59008E-03-5.41001E-04 1.62882E-05
 -1      3422 3.11497E-03-4.06348E-04-9.38383E-07
 -1      3423 3.23808E-03 1.99463E-03 1.36887E-04
 -1      3424-4.23131E-02-1.09115E-02 1.57190E-05
 -1      3425-7.38999E-02-2.02524E-02 1.39087E-04
 -1      3426-6.06954E-02-1.55283E-02-1.54356E-05
 -1      3427-5.42335E-02-1.31272E-02 1.74016E-05
 -1      3428-5.37968E-02-1.19332E-02-7.75668E-05
 -1      3429-7.81860E-02-4.70938E-02-4.94453E-04
 -1      3430-8.38383E-02-4.39495E-02-3.81701E-04
 -1      3431-8.02787E-02-4.07883E-02 1.72068E-04
 -1      3432-7.54918E-02-4.17214E-02 3.25570E-04
 -1      3433-3.64483E-02-3.00644E-03-3.66164E-06
 -1      3434-4.21022E-02-4.90603E-03-3.30435E-04
 -1      3435-1.98238E-01-1.08077E-01 1.16851E-03
 -1      3436-1.42453E-01-8.24629E-02 3.57803E-04
 -1      3437-1.94373E-01-1.16819E-01 4.69211E-04
 -1      3438-1.39826E-01-7.61529E-02 7.48068E-04
 -1      3439-1.77998E-01-1.01364E-01 3.91747E-04
 -1      3440-2.40387E-01-1.19179E-01 1.24519E-03
 -1      3441-8.42723E-02-2.26916E-02-7.08723E-06
 -1      3442-6.14628E-02-1.73362E-02-1.68441E-04
 -1      3443-8.64170E-02-2.12370E-02-2.98035E-04
 -1      3444-5.68602E-04-5.17999E-05-1.89127E-05
 -1      3445-1.23806E-03-1.31712E-03 2.40048E-04
 -1      3446-1.58676E-03 2.11350E-04-7.64720E-04
 -1      3447-3.32132E-03 1.73270E-04-4.95112E-04
 -1      3448-8.81706E-02-3.31237E-02-1.01668E-03
 -1      3449-1.32710E-01-6.70343E-02-4.95288E-04
 -1      3450-1.11032E-01-4.29633E-02 9.64989E-04
 -1      3451-1.40942E-01-5.54051E-02-1.11868E-03
 -1      3452-8.82898E-02-4.27480E-02 2.18458E-04
 -1      3453-1.60583E-01-7.74185E-02-2.94412E-03
 -1      3454-9.53685E-02-6.81957E-02 2.53644E-04
 -1      3455-1.21440E-01-8.19085E-02-9.71987E-04
 -1      3456-7.68487E-02-4.67898E-02-7.71695E-04
 -1      3457-1.27871E-01-7.48113E-02-1.48576E-03
 -1      3458-8.37750E-02-5.57968E-02-4.42138E-04
 -1      3459 2.72496E-03-1.03097E-02 1.84295E-05
 -1      3460 8.81412E-04-7.21987E-03-8.67714E-05
 -1      3461-8.49685E-02-4.28987E-02-1.49678E-04
 -1      3462-1.87298E-01-1.06839E-01-3.49049E-04
 -1      3463-6.08794E-02-3.16613E-02-1.60129E-04
 -1      3464-1.92321E-01-9.45297E-02-8.70216E-05
 -1      3465-1.29695E-01-6.51117E-02-8.23072E-05
 -1      3466-1.66096E-01-8.15541E-02-7.21315E-05
 -1      3467-1.34780E-01-6.72540E-02-3.48095E-04
 -1      3468-1.94061E-01-9.93835E-02-8.10608E-05
 -1      3469-2.38611E-01-1.25626E-01-5.24202E-04
 -1      3470-1.42561E-01-6.54627E-02 1.95635E-04
 -1      3471-2.01926E-01-9.45593E-02 1.11286E-04
 -1      3472-1.77581E-01-8.18570E-02-3.16848E-05
 -1      3473-2.13825E-01-9.92422E-02 1.56228E-04
 -1      3474-1.41435E-01-6.74574E-02 3.86147E-05
 -1      3475-2.62383E-01-1.25043E-01 3.90312E-04
 -1      3476-1.94855E-01-9.45108E-02 2.16887E-04
 -1      3477-1.34900E-01-6.50756E-02 2.09817E-04
 -1      3478-8.85293E-02-4.34517E-02-2.01158E-05
 -1      3479-3.15285E-04-1.68637E-03-1.01499E-04
 -1      3480-2.97088E-04-2.33425E-03-3.01495E-05
 -1      3481 2.90002E-04-4.11388E-03 7.82793E-05
 -1      3482 5.58165E-04-3.22179E-03 5.28101E-05
 -1      3483 5.31822E-04-1.66665E-03 4.32957E-05
 -1      3484-5.75506E-02-1.63390E-02-3.03724E-04
 -1      3485-5.37559E-02-1.62035E-02-3.16688E-04
 -1      3486-9.02655E-02-2.79924E-02-2.19557E-04
 -1      3487-1.04837E-01-3.18263E-02-4.20444E-04
 -1      3488-7.53495E-04-5.17952E-03-1.14861E-04
 -1      3489-1.14235E-02-7.20668E-03 6.24390E-05
 -1      3490-2.34048E-02-1.23921E-02-5.36736E-04
 -1      3491-1.90700E-02-1.80275E-02-2.31637E-04
 -1      3492-5.59523E-03-1.25643E-03 1.04644E-04
 -1      3493-8.30244E-03-4.01114E-03 5.62474E-04
 -1      3494 2.98539E-03-5.18352E-03-2.47990E-04
 -1      3495-1.47790E-01-7.09960E-02-1.82325E-04
 -1      3496-1.28385E-01-6.18051E-02 2.69046E-04
 -1      3497-1.21586E-01-6.49893E-02 3.87832E-05
 -1      3498-1.84366E-01-9.42177E-02 1.33812E-04
 -1      3499-8.22727E-02-4.33916E-02-2.45780E-04
 -1      3500-1.20476E-01-7.40870E-02 4.92678E-04
 -1      3501-2.10993E-01-1.38210E-01 1.16845E-03
 -1      3502-1.80632E-01-1.04613E-01 7.00615E-04
 -1      3503-9.88932E-04-1.88948E-02-3.53987E-04
 -1      3504-4.49545E-03-1.31137E-02 6.27774E-05
 -1      3505-3.13771E-03-1.68344E-02-6.24283E-04
 -1      3506-1.20725E-01-7.04435E-02-2.79268E-04
 -1      3507-8.24717E-03 2.77742E-04-1.68710E-04
 -1      3508-4.66068E-03-7.79411E-05-1.07790E-05
 -1      3509-1.40223E-01-9.74851E-02 6.70262E-04
 -1      3510-5.77018E-03-2.55878E-02-5.86706E-04
 -1      3511-4.48897E-03-2.62014E-02-1.44214E-04
 -1      3512-7.91542E-03-1.99579E-02-8.48389E-04
 -1      3513-1.42460E-02-2.97933E-02-6.40306E-04
 -1      3514-1.02600E-02-3.38324E-02-1.67199E-03
 -1      3515-2.14639E-02-5.92971E-03 3.96896E-04
 -1      3516-2.07064E-02-6.01575E-03 3.30324E-04
 -1      3517-1.63077E-02-9.08945E-03 8.48202E-04
 -1      3518-2.68666E-02-1.42190E-02 6.87725E-04
 -1      3519-2.98490E-02-9.79230E-03 1.61894E-03
 -1      3520-1.87495E-03-1.62433E-02-7.92506E-04
 -1      3521-5.05532E-03-2.14236E-02-7.05377E-04
 -1      3522-1.28458E-02-2.96431E-03 9.40528E-04
 -1      3523-1.62904E-02-8.62459E-03 5.02120E-04
 -1      3524-9.02137E-03-2.88394E-03 7.48176E-04
 -1      3525-1.21102E-02-5.86178E-03 7.93634E-04
 -1      3526-7.97168E-04-1.24112E-02-7.79382E-04
 -1      3527-1.75209E-03-1.81537E-02-7.55207E-04
 -1      3528-1.42916E-01-7.90599E-02-5.57745E-04
 -1      3529-4.35167E-02-7.96707E-03-2.05890E-04
 -1      3530-1.52922E-01-6.44350E-02 1.45772E-03
 -1      3531-9.20543E-02-3.72801E-02 9.22112E-04
 -1      3532-1.35622E-01-6.39035E-02 1.38677E-03
 -1      3533-1.43591E-01-6.72824E-02 6.81195E-04
 -1      3534-2.05557E-01-8.74406E-02 2.35164E-03
 -1      3535-1.52927E-02-2.25854E-03-3.97618E-04
 -1      3536-1.36383E-02-3.49366E-03-4.64816E-04
 -1      3537-1.65702E-02-3.13558E-03-9.19229E-06
 -1      3538-1.89907E-02-2.72819E-03-6.57099E-05
 -1      3539-2.34154E-02-4.58846E-03-3.00863E-05
 -1      3540-6.13174E-02-1.44292E-02 3.58899E-06
 -1      3541-1.61064E-03-2.17280E-03 6.36464E-05
 -1      3542-4.82820E-04-2.12711E-03 1.05204E-04
 -1      3543-8.77978E-02-6.54706E-02-1.35262E-03
 -1      3544-1.07985E-01-6.74704E-02 7.81731E-04
 -1      3545-1.21467E-01-1.03600E-01-1.09062E-03
 -1      3546-1.02102E-01-3.99969E-02 1.03402E-03
 -1      3547-1.34427E-01-6.73918E-02 1.34724E-03
 -1      3548-1.20348E-01-5.34949E-02 1.44870E-04
 -1      3549-5.79340E-02-1.43527E-02-1.90827E-04
 -1      3550-3.79582E-02-8.95294E-03 1.80258E-04
 -1      3551 4.03948E-03-7.11224E-04-3.07623E-05
 -1      3552 2.17764E-03 1.33774E-03-7.66946E-06
 -1      3553-3.37889E-02-6.16413E-03 3.13649E-04
 -1      3554-4.09420E-02-8.21131E-03 3.01042E-04
 -1      3555-6.40369E-02-1.17290E-02 4.81249E-04
 -1      3556-6.74014E-02-1.38909E-02 2.79875E-04
 -1      3557-5.42416E-02-9.62000E-03 2.41543E-04
 -1      3558-1.23696E-01-4.96411E-02 5.64101E-05
 -1      3559-4.64017E-02-8.02587E-03-6.36126E-05
 -1      3560-1.00373E-01-3.41142E-02 8.41933E-05
 -1      3561-1.04719E-01-3.37178E-02 2.28548E-04
 -1      3562-1.40670E-01-8.46731E-02-4.12184E-04
 -1      3563-5.05982E-02-4.51570E-02-3.60178E-04
 -1      3564-4.54933E-02-5.36432E-02 6.15893E-04
 -1      3565-5.44739E-02-3.97363E-02 2.59560E-04
 -1      3566-6.12734E-02-3.14797E-02 5.83448E-05
 -1      3567-1.48450E-01-7.29246E-02 3.25769E-04
 -1      3568-1.89988E-01-1.05401E-01 3.12346E-04
 -1      3569-2.01370E-01-9.97389E-02 2.47152E-04
 -1      3570-1.82457E-01-1.09991E-01 5.13856E-05
 -1      3571-1.93540E-01-1.02989E-01-2.13012E-04
 -1      3572-1.28312E-01-4.98632E-02-5.10135E-05
 -1      3573-1.35235E-01-5.05177E-02 1.19211E-04
 -1      3574-1.54440E-01-6.85529E-02-3.39812E-05
 -1      3575-1.46100E-01-6.84491E-02 1.44940E-04
 -1      3576-1.60354E-01-6.97909E-02 8.06319E-06
 -1      3577-1.29470E-01-4.97554E-02 1.90090E-04
 -1      3578-1.55537E-01-7.20914E-02-2.83087E-04
 -1      3579-2.18258E-01-1.03838E-01-1.41630E-04
 -1      3580-1.75276E-01-8.31877E-02-5.23348E-06
 -1      3581-1.46152E-01-7.12874E-02-4.28320E-04
 -1      3582-1.65218E-01-8.47096E-02 6.48466E-05
 -1      3583-1.52227E-01-6.83707E-02 1.75148E-04
 -1      3584-1.76746E-03 2.27638E-04 7.87599E-04
 -1      3585-3.49329E-03 1.68044E-04 4.54726E-04
 -1      3586 3.73838E-03-6.20216E-03 3.29850E-04
 -1      3587 3.28241E-03-3.92346E-03 2.38947E-04
 -1      3588 4.12462E-03-7.75613E-03 3.68590E-04
 -1      3589 2.52989E-03-9.78373E-03 2.70540E-04
 -1      3590-1.28164E-01-7.79258E-02-7.26380E-06
 -1      3591-9.10329E-02-6.42192E-02-2.40081E-04
 -1      3592-7.83116E-02-5.44467E-02 4.29096E-04
 -1      3593-3.97829E-02-1.15049E-02-1.49300E-03
 -1      3594 3.83584E-03 8.25695E-04 1.20087E-05
 -1      3595 2.65553E-03 1.45935E-03-1.01115E-04
 -1      3596 4.17539E-03-7.35598E-03 1.66594E-04
 -1      3597-1.21951E-03-5.04288E-04-4.96233E-05
 -1      3598-1.33228E-03-1.38278E-03 7.98569E-05
 -1      3599-7.28843E-02-1.69063E-02 7.98597E-05
 -1      3600-7.44067E-02-1.69185E-02 1.75027E-05
 -1      3601-7.52267E-02-1.46223E-02 2.05982E-04
 -1      3602-3.65460E-02-8.48129E-03-1.61960E-04
 -1      3603-1.21806E-03-1.74417E-02 6.53981E-04
 -1      3604-4.06252E-02-8.53380E-03 3.30157E-06
 -1      3605-1.78675E-01-1.27797E-01-5.39774E-04
 -1      3606-1.33717E-01-8.89973E-02 5.51044E-04
 -1      3607-1.67450E-01-1.24017E-01 6.20073E-04
 -1      3608-1.16529E-01-8.83279E-02-1.23155E-03
 -1      3609-1.76485E-01-1.22067E-01-2.33511E-04
 -1      3610-2.15531E-01-1.45173E-01-1.29713E-03
 -1      3611-1.35674E-02-1.89743E-02-2.43855E-04
 -1      3612-1.67904E-02-1.38187E-02 1.19238E-04
 -1      3613-2.54849E-02-1.93976E-02 5.71213E-04
 -1      3614-1.13562E-02-1.71361E-02-1.02460E-04
 -1      3615-2.33111E-02-2.71885E-02-3.46778E-04
 -1      3616-7.16197E-02-1.54154E-02-9.06596E-05
 -1      3617-9.22921E-02-5.77840E-02 2.57072E-04
 -1      3618-8.09335E-02-5.03995E-02-4.45374E-04
 -1      3619-1.05117E-01-7.63722E-02-2.31852E-03
 -1      3620-8.62962E-02-6.69383E-02-1.60519E-03
 -1      3621-1.77919E-01-1.21716E-01-6.23483E-04
 -1      3622-1.41728E-01-1.06659E-01-8.63989E-04
 -1      3623-1.20397E-01-8.12957E-02-8.79305E-04
 -1      3624-1.63010E-01-8.05417E-02-2.24451E-05
 -1      3625-1.03519E-01-5.16663E-02 1.80541E-04
 -1      3626-6.27282E-03-3.93849E-03 6.75855E-04
 -1      3627-6.04479E-03-9.42688E-04 5.92717E-04
 -1      3628-3.27993E-02-9.63980E-03-1.10088E-04
 -1      3629-3.53644E-02-9.89912E-03-1.75056E-04
 -1      3630-6.79680E-02-2.01873E-02-2.89405E-04
 -1      3631-5.92268E-02-1.50584E-02-4.71981E-05
 -1      3632-5.90251E-02-1.59408E-02-1.84482E-04
 -1      3633-1.39292E-02-1.61050E-02-2.47964E-04
 -1      3634-7.09497E-02-1.67209E-02-6.22801E-05
 -1      3635-4.80075E-02-3.00253E-02 2.39637E-04
 -1      3636-1.64375E-04-3.07830E-03 2.31701E-04
 -1      3637-1.64319E-03-2.41907E-03 2.07076E-04
 -1      3638-8.29640E-02-4.07713E-02 2.12259E-05
 -1      3639-1.51713E-01-9.90125E-02-4.97474E-04
 -1      3640-8.02876E-02-4.06672E-02-8.94056E-06
 -1      3641-4.29222E-02-1.14007E-02-2.23651E-04
 -1      3642-4.72312E-02-1.24997E-02-7.37394E-05
 -1      3643-5.50965E-02-1.25007E-02-1.72319E-04
 -1      3644-5.24014E-02-1.34058E-02-1.13990E-04
 -1      3645-1.97695E-01-1.03918E-01 3.81778E-04
 -1      3646-1.44805E-01-8.54422E-02 1.50153E-05
 -1      3647-1.80602E-01-9.25530E-02-1.36835E-04
 -1      3648-1.47359E-02-2.92414E-03-7.90590E-05
 -1      3649-3.31867E-02-5.06981E-03-2.11051E-06
 -1      3650-5.94171E-03 5.13344E-05-8.45323E-05
 -1      3651-6.89939E-03-3.19693E-03-5.87206E-04
 -1      3652-6.50365E-03-5.35127E-03-2.32003E-04
 -1      3653-9.66293E-03-6.33329E-03-1.08546E-04
 -1      3654-1.10949E-01-8.77132E-02-9.03146E-04
 -1      3655-1.20934E-01-8.39755E-02-1.17576E-03
 -1      3656-1.37839E-01-1.07563E-01-2.41468E-03
 -1      3657-1.44269E-01-1.02638E-01-1.30357E-03
 -1      3658-3.24525E-03-1.70197E-03-2.44192E-04
 -1      3659-2.35152E-03-1.77392E-03-6.60647E-05
 -1      3660-3.51417E-03-3.32749E-03 9.65148E-05
 -1      3661-2.98469E-03-4.69226E-03-2.23748E-04
 -1      3662-3.20883E-02-5.24294E-03 4.57803E-05
 -1      3663-4.89876E-03-9.96711E-05 3.76473E-05
 -1      3664-8.33288E-03 2.91179E-04 1.70802E-04
 -1      3665-1.12022E-01-7.92882E-02 6.69662E-04
 -1      3666-3.45736E-02-3.61939E-03-2.51238E-04
 -1      3667-1.04568E-03-3.69163E-03-2.31604E-04
 -1      3668-2.79524E-04-6.05111E-03 5.95228E-05
 -1      3669-1.54438E-02-3.42117E-03 2.75828E-05
 -1      3670-2.61914E-02-5.98629E-03-1.15732E-04
 -1      3671-1.78809E-02-1.49506E-03-1.45448E-04
 -1      3672-3.82215E-02-4.03484E-03 5.50274E-06
 -1      3673-1.38296E-01-8.27914E-02-5.30406E-04
 -1      3674-1.71910E-01-8.00611E-02-9.67964E-04
 -1      3675-1.12423E-01-6.21188E-02-7.58597E-04
 -1      3676-1.14400E-01-6.18016E-02-5.11237E-04
 -1      3677-1.82492E-02-1.81819E-03-1.95823E-04
 -1      3678-3.07407E-02-2.92636E-03-2.60386E-04
 -1      3679-8.44129E-03-3.14055E-02 1.93076E-03
 -1      3680-2.34963E-03-1.68069E-02 6.56462E-04
 -1      3681-3.26227E-03-2.61031E-02 6.56167E-04
 -1      3682-8.28719E-03-2.47395E-02 8.45538E-04
 -1      3683-4.69148E-03-1.99266E-02 6.56103E-05
 -1      3684-5.76890E-04-1.74412E-02 4.74981E-04
 -1      3685-4.98152E-03-1.61629E-02 3.55543E-04
 -1      3686-1.47520E-02-3.28049E-02 6.87621E-04
 -1      3687-9.99875E-03-2.86450E-02 1.08380E-03
 -1      3688-1.90785E-01-8.63750E-02-2.05559E-04
 -1      3689-1.19722E-01-5.43587E-02-6.16790E-04
 -1      3690-2.45745E-02-9.89928E-03-3.26431E-04
 -1      3691-1.79624E-02-7.77681E-03-2.88712E-04
 -1      3692-1.79595E-02-2.07022E-02-1.21850E-04
 -1      3693-1.56766E-02-1.34714E-02-3.88221E-04
 -1      3694-7.05353E-02-1.52096E-02-2.29686E-04
 -1      3695-4.15790E-02-7.90313E-03-2.33229E-04
 -1      3696-7.59306E-02-1.53295E-02-1.19057E-04
 -1      3697-4.47517E-02-8.08727E-03-2.79107E-05
 -1      3698-1.15689E-03-2.02600E-03 1.52802E-04
 -1      3699-1.35606E-03-2.79282E-03 3.94126E-05
 -1      3700-1.56510E-03-1.84307E-03 2.05642E-04
 -1      3701-2.17043E-03-2.08372E-03-9.37873E-05
 -1      3702-2.50872E-03-3.07522E-03 1.99359E-04
 -1      3703-5.11936E-02-1.34808E-02 2.37988E-04
 -1      3704-5.71103E-02-1.43801E-02 6.19139E-05
 -1      3705-4.39711E-02-1.15666E-02 3.69192E-05
 -1      3706-5.66610E-02-1.44916E-02 1.73757E-04
 -1      3707-4.96689E-02-1.11002E-02 2.10067E-04
 -1      3708-3.65068E-02-1.01378E-02 1.54377E-04
 -1      3709-6.56133E-02-1.90821E-02 2.36907E-04
 -1      3710-4.69046E-02-1.38190E-02 2.12807E-04
 -1      3711-6.95072E-02-1.87839E-02 2.25294E-04
 -1      3712-5.17394E-02-1.80288E-02-1.99333E-04
 -1      3713-9.54865E-02-3.21679E-02-1.77598E-04
 -1      3714-6.51299E-02-2.37442E-02-1.86042E-04
 -1      3715-9.35814E-02-3.34940E-02-5.30970E-05
 -1      3716-3.37617E-02-9.74615E-03-1.11530E-03
 -1      3717-7.48727E-02-2.93698E-02-9.62079E-04
 -1      3718-4.75294E-02-1.33686E-02-8.86765E-04
 -1      3719-4.81342E-02-2.45213E-02-4.36273E-04
 -1      3720-1.65444E-02-3.22936E-02 1.46745E-03
 -1      3721-3.86879E-02-5.44584E-02 1.25970E-03
 -1      3722-4.53921E-02-1.46464E-02-1.59474E-03
 -1      3723-2.54056E-02-4.37034E-02 1.80010E-03
 -1      3724-4.31552E-02-5.50031E-02 2.84589E-04
 -1      3725-2.59097E-02-4.10248E-02 1.90775E-03
 -1      3726-7.19046E-02-6.59665E-02-1.86875E-03
 -1      3727-1.21468E-01-9.70541E-02-1.15431E-03
 -1      3728-8.70652E-02-8.19612E-02-2.53924E-03
 -1      3729-9.46147E-02-8.34746E-02-1.73410E-03
 -1      3730-9.71656E-02-3.81562E-02 1.72323E-03
 -1      3731-1.56138E-01-6.42506E-02 1.51414E-03
 -1      3732-1.20932E-01-4.48913E-02 1.26071E-03
 -1      3733-1.19399E-01-5.75155E-02 1.11821E-03
 -1      3734-5.82064E-02-2.17741E-02-1.40572E-04
 -1      3735-1.19448E-01-5.79041E-02-1.91511E-04
 -1      3736-8.31708E-02-4.14574E-02-2.20462E-04
 -1      3737-1.52794E-01-7.19953E-02-1.62607E-04
 -1      3738-1.21852E-01-5.86313E-02-2.89929E-04
 -1      3739-1.00862E-01-6.70635E-02-8.98041E-04
 -1      3740-2.05573E-01-1.28680E-01-5.42373E-04
 -1      3741-1.19198E-01-7.87758E-02-5.77362E-04
 -1      3742-1.44378E-01-8.64453E-02-1.96421E-04
 -1      3743-1.21482E-01-5.44550E-02 1.23300E-03
 -1      3744-2.02385E-01-9.51895E-02 7.47465E-04
 -1      3745-7.78594E-02-2.76503E-02-3.38986E-04
 -1      3746-1.47120E-01-5.44143E-02-3.19186E-04
 -1      3747-1.21481E-01-4.49563E-02-4.02319E-04
 -1      3748-1.18109E-01-4.43458E-02-3.67421E-04
 -1      3749-1.45061E-01-6.54955E-02 1.17776E-03
 -1      3750-1.96476E-01-9.56674E-02 3.30642E-04
 -1      3751-6.89529E-02-2.17364E-02 4.58904E-04
 -1      3752-1.10572E-01-3.35827E-02 4.33404E-04
 -1      3753-7.74364E-02-2.33592E-02 5.03433E-04
 -1      3754-1.05954E-01-3.19185E-02 4.10852E-04
 -1      3755-6.19003E-02-1.76826E-02 2.59610E-04
 -1      3756-1.22508E-01-5.57531E-02 9.45615E-04
 -1      3757-1.02074E-01-6.51708E-02-8.10287E-04
 -1      3758-9.85160E-02-4.23596E-02 4.95053E-04
 -1      3759-1.74013E-01-7.38367E-02 3.63732E-04
 -1      3760-1.01370E-01-4.37515E-02 4.14268E-04
 -1      3761-6.43696E-02-2.67815E-02 1.85802E-04
 -1      3762-1.28993E-01-5.24602E-02 1.54819E-04
 -1      3763-1.03406E-01-4.39014E-02-3.40397E-06
 -1      3764-1.04621E-01-4.70502E-02-4.25472E-04
 -1      3765-1.35724E-01-6.15806E-02-4.04141E-04
 -1      3766-1.79589E-01-8.24176E-02-3.81198E-04
 -1      3767-1.40903E-01-6.59803E-02-3.32200E-04
 -1      3768-1.41258E-01-5.92624E-02 7.57571E-04
 -1      3769-1.39313E-01-5.99249E-02 2.92735E-04
 -1      3770-9.22755E-02-5.08465E-02 3.81217E-04
 -1      3771-1.59473E-01-8.31457E-02 7.24453E-05
 -1      3772-8.86446E-02-4.70093E-02 3.63937E-04
 -1      3773-1.54314E-01-8.17851E-02 4.45993E-04
 -1      3774-2.02485E-01-1.19001E-01-1.34861E-04
 -1      3775-1.64156E-01-9.81661E-02 1.39287E-05
 -1      3776-1.06757E-01-5.75783E-02 5.03945E-04
 -1      3777-9.67775E-02-4.36630E-02-1.64801E-03
 -1      3778-1.00604E-01-3.65150E-02-2.72760E-03
 -1      3779-8.02198E-02-2.69240E-02-2.02984E-03
 -1      3780-9.68564E-02-4.15683E-02-1.55511E-03
 -1      3781-8.44012E-02-3.17206E-02-2.11074E-04
 -1      3782-9.72583E-02-5.60849E-02 4.36267E-04
 -1      3783-1.83077E-01-1.06389E-01 6.36925E-04
 -1      3784 2.65981E-03-6.96755E-03 2.67752E-04
 -1      3785-1.45825E-01-8.67203E-02 6.83174E-04
 -1      3786-1.56397E-01-8.69861E-02 3.52988E-04
 -1      3787-1.52074E-02-3.03169E-03 6.72000E-05
 -1      3788-3.13641E-02-4.65700E-03-6.01949E-05
 -1      3789-1.77624E-02 2.02285E-04 2.20411E-04
 -1      3790-1.67283E-02 1.24326E-05 3.77091E-04
 -1      3791-2.02182E-02-1.18203E-03 2.69954E-04
 -1      3792-2.71387E-02-1.44195E-03 2.38482E-04
 -1      3793-2.15774E-02-1.14424E-03-9.00698E-06
 -1      3794-1.49716E-01-7.72969E-02-2.87402E-04
 -1      3795-1.44523E-01-7.71119E-02-3.11764E-04
 -1      3796-1.07422E-01-5.83918E-02-5.07177E-04
 -1      3797-1.35118E-01-7.22249E-02 7.24541E-05
 -1      3798-1.09866E-01-5.93820E-02 9.77389E-05
 -1      3799-1.67160E-01-7.76923E-02 4.26498E-04
 -1      3800-1.71503E-01-7.80706E-02 5.15934E-04
 -1      3801-1.27862E-01-5.80620E-02 4.05399E-04
 -1      3802-1.52563E-01-7.17878E-02 5.14711E-04
 -1      3803-1.29280E-01-5.91700E-02 4.38784E-04
 -1      3804-3.70498E-03-1.94421E-03-3.81417E-04
 -1      3805-8.98265E-02-4.38785E-02 1.66420E-03
 -1      3806-9.76231E-02-3.43675E-02 2.03681E-03
 -1      3807-1.03134E-01-3.44419E-02 1.32064E-03
 -1      3808-6.38521E-02-2.85691E-02 1.05415E-03
 -1      3809-7.71820E-02-2.77383E-02 6.25573E-04
 -1      3810-1.21585E-01-6.09733E-02 1.20920E-03
 -1      3811-7.42950E-02-6.91393E-02-1.74739E-03
 -1      3812-6.70057E-02-7.94073E-02-2.08407E-03
 -1      3813-6.92981E-02-8.47807E-02-1.26116E-03
 -1      3814-4.79835E-02-5.05191E-02-1.19358E-03
 -1      3815-5.11164E-02-6.29130E-02-4.16375E-04
 -1      3816-9.75138E-02-9.40194E-02-1.20524E-03
 -1      3817-2.11137E-01-9.94328E-02 1.64807E-03
 -1      3818-1.82884E-01-8.13397E-02 9.43953E-04
 -1      3819-2.16259E-01-9.69343E-02 4.72859E-04
 -1      3820-1.42321E-01-6.15351E-02 9.04907E-04
 -1      3821-1.59107E-01-7.10423E-02 1.96575E-03
 -1      3822-2.19279E-02-4.66752E-03 2.80173E-05
 -1      3823-3.11350E-02-6.81142E-03 1.11089E-04
 -1      3824-1.17090E-01-4.48142E-02-3.28158E-04
 -1      3825-9.42462E-02-3.67767E-02-3.77152E-04
 -1      3826-2.01282E-01-7.92271E-02-2.68965E-04
 -1      3827-8.90005E-02-4.20638E-02-1.30034E-04
 -1      3828-1.09429E-01-5.00557E-02-2.52196E-04
 -1      3829-1.97214E-01-8.85195E-02-1.29946E-04
 -1      3830-2.13459E-02-9.42083E-03 6.12515E-05
 -1      3831-2.70244E-02-1.05444E-02 6.08967E-04
 -1      3832-1.33491E-02-2.15858E-02-2.17542E-04
 -1      3833-1.94140E-02-2.43905E-02-2.20017E-05
 -1      3834-7.62881E-02-1.73614E-02 4.77634E-04
 -1      3835-5.38177E-02-1.08995E-02 2.14987E-04
 -1      3836-7.87457E-02-1.72411E-02-1.35251E-04
 -1      3837-7.92992E-02-1.80043E-02 2.51682E-04
 -1      3838-7.96117E-02-1.51446E-02 2.29612E-04
 -1      3839-6.14376E-02-2.05988E-02-1.39324E-03
 -1      3840-5.95650E-02-2.03276E-02-1.02983E-03
 -1      3841-9.15511E-02-4.16446E-02-7.91729E-04
 -1      3842-1.12624E-01-4.14145E-02-3.29148E-03
 -1      3843-2.50713E-02-3.48215E-02-1.90865E-03
 -1      3844-2.92884E-02-4.02283E-02-1.81821E-03
 -1      3845-3.95648E-02-5.14999E-02-2.18629E-03
 -1      3846-4.87916E-02-5.70075E-02-9.50104E-04
 -1      3847-4.82416E-02-1.44584E-02 1.85336E-03
 -1      3848-6.87582E-02-2.92703E-02 6.74821E-04
 -1      3849-4.09955E-02-1.30428E-02 1.73903E-03
 -1      3850-6.09513E-02-2.24327E-02 2.16710E-03
 -1      3851-5.68768E-02-2.62953E-02-1.52533E-04
 -1      3852-6.45740E-02-3.04806E-02-1.75723E-04
 -1      3853-1.06854E-01-4.82798E-02-5.48146E-05
 -1      3854-9.26767E-02-4.06509E-02-3.55634E-05
 -1      3855-7.15190E-02-2.73389E-02-3.11918E-04
 -1      3856-6.67725E-02-2.65620E-02-3.07516E-04
 -1      3857-1.07926E-01-4.37065E-02-3.07745E-04
 -1      3858-1.24400E-01-4.99040E-02-3.65573E-04
 -1      3859-9.92618E-02-4.32431E-02 2.66798E-04
 -1      3860-8.44500E-02-3.63017E-02-8.19104E-05
 -1      3861-1.83889E-01-7.80499E-02 1.93092E-04
 -1      3862-1.04536E-01-4.33800E-02 1.91514E-04
 -1      3863-1.23956E-01-5.12703E-02 2.08476E-04
 -1      3864-2.16297E-01-9.01717E-02 3.15358E-04
 -1      3865-5.90489E-02-2.62778E-02 1.32958E-04
 -1      3866-1.11324E-01-4.92535E-02 1.11588E-04
 -1      3867-7.61921E-02-3.10750E-02 3.77236E-04
 -1      3868-1.27613E-01-5.02037E-02 5.04366E-04
 -1      3869-1.40030E-01-8.23730E-02 4.37397E-04
 -1      3870-1.18641E-01-6.87803E-02-1.49120E-06
 -1      3871-2.36473E-01-1.34659E-01 4.41911E-04
 -1      3872-7.72427E-02-4.84466E-02 8.26667E-04
 -1      3873-8.27474E-02-5.03928E-02 5.75443E-04
 -1      3874-1.49729E-01-8.77559E-02 2.10526E-04
 -1      3875-1.23946E-01-7.68981E-02 1.05193E-03
 -1      3876-5.52833E-02-2.57574E-02 2.24956E-04
 -1      3877-9.02293E-02-4.22042E-02 2.38367E-04
 -1      3878-1.82500E-01-8.50918E-02-6.02347E-04
 -1      3879-1.76172E-01-8.58026E-02-6.47284E-04
 -1      3880-1.89416E-01-8.75505E-02-8.52099E-04
 -1      3881-1.36160E-01-6.33933E-02-4.03679E-04
 -1      3882-1.60715E-01-7.75404E-02-6.03626E-04
 -1      3883-2.59233E-01-1.28040E-01-4.38000E-04
 -1      3884-7.74742E-02-4.31468E-02-3.31378E-04
 -1      3885-1.38396E-01-7.86372E-02-1.01032E-03
 -1      3886-8.02346E-02-1.90966E-02-2.84091E-04
 -1      3887-2.00673E-01-1.20118E-01-7.73928E-04
 -1      3888-1.65883E-01-1.00480E-01-4.11065E-04
 -1      3889-7.12539E-02-4.03998E-02-2.28088E-04
 -1      3890-1.20934E-01-6.57269E-02-1.39981E-04
 -1      3891-9.24970E-02-4.23114E-02 5.13778E-04
 -1      3892-1.65535E-01-7.70546E-02 7.26563E-04
 -1      3893-9.11603E-02-4.16792E-02-6.03179E-04
 -1      3894-9.95285E-02-4.56186E-02-7.36853E-04
 -1      3895-1.75586E-01-8.18236E-02-1.23804E-03
 -1      3896-1.40879E-01-6.79424E-02-3.55160E-04
 -1      3897-6.73532E-02-2.67516E-02 3.37876E-04
 -1      3898-1.03007E-01-4.11981E-02 3.73677E-04
 -1      3899-9.69380E-02-8.85919E-02 3.62956E-04
 -1      3900-5.16837E-02-5.91590E-02-4.70445E-04
 -1      3901-6.16006E-02-4.76653E-02-6.36938E-04
 -1      3902-7.46821E-02-2.87075E-02 5.62603E-04
 -1      3903-1.06983E-01-7.62339E-02 9.70774E-04
 -1      3904-6.62963E-02-4.12026E-02 7.54335E-04
 -1      3905-6.25849E-02-1.32172E-02-2.73445E-04
 -1      3906-1.24316E-01-9.40368E-02 1.88403E-03
 -1      3907-1.10615E-01-8.27270E-02 1.56547E-03
 -1      3908-1.61271E-01-1.07208E-01 8.10295E-04
 -1      3909-1.65376E-01-1.18501E-01 1.24433E-03
 -1      3910-1.17095E-01-8.09718E-02 6.65912E-04
 -1      3911-1.35583E-01-5.36453E-02-1.67209E-03
 -1      3912-1.58247E-01-6.55829E-02-2.54676E-03
 -1      3913-6.29185E-02-1.65656E-02 1.63956E-04
 -1      3914-8.88391E-02-2.55068E-02 2.18708E-05
 -1      3915-1.65775E-01-7.44613E-02-9.27374E-04
 -1      3916-1.73920E-01-7.67378E-02-2.03128E-03
 -1      3917-2.19828E-01-1.14148E-01 1.53047E-04
 -1      3918-1.33039E-01-7.18750E-02 2.14472E-04
 -1      3919-1.30820E-01-5.94507E-02-1.10375E-03
 -1      3920-1.51414E-01-7.00392E-02-1.06273E-03
 -1      3921-2.18073E-01-1.14888E-01-4.26634E-04
 -1      3922-1.38071E-01-7.05109E-02-3.72059E-04
 -1      3923-1.60436E-01-7.61678E-02-9.37607E-04
 -1      3924-1.69711E-01-8.00601E-02-6.81698E-04
 -1      3925-8.57378E-02-3.93785E-02 4.83551E-04
 -1      3926-1.33764E-01-6.36099E-02 3.06360E-04
 -1      3927-2.09571E-01-1.16911E-01-1.39935E-04
 -1      3928-1.26373E-01-7.31007E-02-4.70869E-05
 -1      3929-5.84699E-02-1.73724E-02 1.01316E-04
 -1      3930-1.29606E-01-8.26225E-02 8.78130E-04
 -1      3931-1.63140E-01-1.15562E-01 3.80960E-04
 -1      3932-2.28866E-01-1.12734E-01 1.36404E-04
 -1      3933-1.47234E-01-6.94350E-02-1.95174E-04
 -1      3934-1.89784E-02-1.56277E-03 1.61776E-04
 -1      3935-3.65834E-02-3.35793E-03 5.89851E-06
 -1      3936-1.81080E-03-1.47102E-03 8.58404E-05
 -1      3937-2.78050E-03-3.27837E-03 3.19752E-04
 -1      3938-2.65877E-02-2.74375E-03 2.55484E-04
 -1      3939-3.71542E-02-3.44305E-03 3.68730E-04
 -1      3940-3.99391E-02-5.07598E-03-1.42469E-04
 -1      3941-5.13451E-02-7.80071E-03-1.52050E-04
 -1      3942-3.13628E-03-2.10787E-03 3.08510E-04
 -1      3943-3.72051E-03-3.99526E-03-1.34849E-05
 -1      3944-1.09504E-01-4.89462E-02 2.12430E-04
 -1      3945-1.13618E-01-4.84686E-02-2.72892E-05
 -1      3946-8.96807E-02-3.76261E-02-4.43315E-06
 -1      3947-1.24088E-01-5.46861E-02-1.73489E-04
 -1      3948-1.35423E-01-5.99645E-02 7.23302E-05
 -1      3949-3.25056E-02-9.49282E-03 9.41509E-04
 -1      3950-1.45828E-02-3.36868E-02-9.77813E-04
 -1      3951-1.32191E-01-6.18348E-02 6.24962E-05
 -1      3952-9.74925E-02-4.44871E-02-6.72882E-05
 -1      3953-1.27661E-01-6.06024E-02-1.18921E-04
 -1      3954-1.13630E-01-5.24257E-02-1.04777E-04
 -1      3955-1.34150E-01-5.44068E-02 2.64264E-04
 -1      3956-1.49667E-01-6.29476E-02 1.66281E-05
 -1      3957-1.07266E-01-4.51851E-02 4.33931E-06
 -1      3958-1.55990E-01-6.41069E-02-1.78545E-04
 -1      3959-1.52992E-01-6.16556E-02 3.62152E-05
 -1      3960-1.24134E-01-4.89538E-02-2.18805E-04
 -1      3961-9.36533E-02-3.81304E-02-9.56707E-05
 -1      3962-1.33229E-01-5.50938E-02-5.68493E-05
 -1      3963-1.22200E-01-4.92848E-02-2.52275E-04
 -1      3964-1.44109E-01-6.03191E-02-5.88633E-05
 -1      3965-1.20672E-01-5.24375E-02-1.44955E-04
 -1      3966-1.37092E-01-6.04839E-02-1.38129E-04
 -1      3967-1.45853E-01-6.17253E-02-1.64859E-04
 -1      3968-1.02385E-01-4.39335E-02-9.87656E-05
 -1      3969-1.46672E-01-5.67558E-02 8.16275E-05
 -1      3970-9.85236E-02-3.81533E-02-4.62227E-05
 -1      3971-1.32994E-01-5.01755E-02-8.06074E-05
 -1      3972-1.29286E-01-5.07442E-02-1.36043E-04
 -1      3973-3.86467E-02-4.71577E-03-3.43341E-04
 -1      3974-4.98141E-02-7.38824E-03-4.54271E-04
 -1      3975-1.40565E-01-6.07279E-02 1.41903E-04
 -1      3976-1.02062E-01-4.38841E-02 7.32684E-05
 -1      3977-1.41922E-01-6.19150E-02 1.58872E-04
 -1      3978-1.27545E-01-5.31895E-02 1.85633E-04
 -1      3979-1.44067E-01-6.03582E-02 1.75118E-04
 -1      3980-1.67961E-01-7.55606E-02-6.73631E-04
 -1      3981-1.55424E-02-7.87723E-03-1.85850E-04
 -1      3982-1.29074E-02-1.24308E-02-6.06387E-04
 -1      3983-1.03956E-02-1.44745E-02-3.13120E-04
 -1      3984-1.17111E-01-4.92627E-02 7.67378E-05
 -1      3985-1.21352E-01-4.88339E-02 9.52844E-05
 -1      3986-1.38201E-01-5.53505E-02 2.96064E-04
 -1      3987-9.39655E-02-3.81230E-02 8.21340E-05
 -1      3988-4.06266E-03-2.02512E-03 5.58163E-04
 -1      3989-2.61552E-02-3.10157E-03 2.44244E-04
 -1      3990 8.21444E-04-1.15805E-02 5.17017E-04
 -1      3991-7.36160E-02-1.64964E-02-1.25463E-04
 -1      3992-4.24267E-02-1.30538E-02 1.44365E-04
 -1      3993-5.99927E-02-1.84096E-02 2.23624E-04
 -1      3994-5.15901E-02-1.65659E-02 1.38540E-04
 -1      3995-4.84963E-02-1.39461E-02 1.18100E-04
 -1      3996-8.49532E-03-2.39100E-02 1.46640E-03
 -1      3997-1.13581E-01-8.66744E-02 3.26438E-04
 -1      3998 1.06118E-03-4.66436E-03 1.03726E-04
 -1      3999-6.83515E-02-1.53369E-02-3.96667E-04
 -1      4000-8.75215E-02-7.50817E-02 9.65805E-04
 -1      4001-1.11741E-01-9.06869E-02 6.67576E-04
 -1      4002-9.04789E-02-6.62188E-02 9.11398E-04
 -1      4003-1.03643E-01-7.91488E-02 9.35454E-04
 -1      4004-9.72360E-02-8.27632E-02 2.49596E-03
 -1      4005-2.91086E-02-7.23056E-03 1.07465E-04
 -1      4006-4.87310E-02-1.27999E-02 4.77168E-05
 -1      4007-4.31086E-03 1.43495E-04 8.16727E-05
 -1      4008-7.14879E-02-5.13330E-02 6.16559E-04
 -1      4009-1.16408E-01-9.48561E-02 7.42517E-04
 -1      4010-1.17233E-01-8.07846E-02 2.09527E-04
 -1      4011-1.22235E-01-7.13015E-02 1.03069E-03
 -1      4012-8.05570E-02-5.29512E-02 3.27474E-04
 -1      4013-9.98181E-02-6.56201E-02-1.15242E-03
 -1      4014 2.86851E-03-1.46307E-03-2.14741E-05
 -1      4015 3.65753E-03-3.86795E-03-2.90379E-04
 -1      4016-5.14448E-02-3.89103E-02 2.75404E-04
 -1      4017-5.37550E-02-3.55451E-02-2.43215E-04
 -1      4018-9.47119E-02-6.06102E-02-1.92054E-04
 -1      4019-1.20105E-01-6.20396E-02 1.99823E-04
 -1      4020-1.17403E-01-6.28083E-02 7.56679E-05
 -1      4021-8.01682E-02-6.69884E-02 1.71251E-03
 -1      4022-1.86172E-01-1.34292E-01 1.66357E-03
 -1      4023-6.17005E-02-2.01517E-02 1.05500E-04
 -1      4024-6.46133E-02-1.98740E-02 9.73552E-05
 -1      4025-1.02885E-01-9.46529E-02 7.83763E-04
 -1      4026-6.31763E-02-6.15345E-02 1.04046E-03
 -1      4027-9.88041E-02-9.42148E-02-1.37666E-03
 -1      4028-9.04491E-02-8.41949E-02-2.56455E-04
 -1      4029-7.01350E-02-5.88063E-02-3.20744E-04
 -1      4030-1.01528E-01-8.01375E-02 2.59062E-03
 -1      4031-1.16750E-01-8.70564E-02 1.45176E-03
 -1      4032-5.99830E-03-1.36661E-02-4.43982E-04
 -1      4033-9.19760E-02-6.66457E-02 1.17174E-03
 -1      4034-2.12976E-02-4.62133E-03-6.60477E-05
 -1      4035-8.61874E-02-8.92674E-02 1.08288E-03
 -1      4036-6.06630E-02-5.34330E-02-5.20896E-05
 -1      4037-7.19060E-02-7.70704E-02-8.99365E-04
 -1      4038-7.50083E-02-7.55990E-02-9.98213E-04
 -1      4039-1.21464E-01-5.20121E-02-6.08327E-05
 -1      4040-1.17957E-01-4.84827E-02 3.41271E-05
 -1      4041-1.18455E-01-5.00546E-02-1.82209E-04
 -1      4042-1.23035E-01-5.04523E-02-3.46814E-05
 -1      4043-1.32227E-01-5.63025E-02 4.36381E-05
 -1      4044-1.25839E-01-5.23314E-02-2.11359E-04
 -1      4045-1.28829E-01-5.59212E-02 3.58805E-05
 -1      4046-1.20817E-01-4.86917E-02 1.10380E-05
 -1      4047-8.92394E-02-4.27596E-02-3.81699E-04
 -1      4048-1.35301E-01-5.37045E-02-9.23319E-04
 -1      4049-1.28965E-01-5.27660E-02 8.07045E-04
 -1      4050-1.62905E-01-7.86145E-02 1.91490E-03
 -1      4051-1.11787E-01-4.47752E-02 1.20541E-03
 -1      4052-9.64116E-02-4.05933E-02 1.33957E-03
 -1      4053-1.34269E-01-5.60902E-02-2.19962E-03
 -1      4054-1.73509E-01-9.08564E-02-2.99985E-04
 -1      4055-1.18365E-01-6.04242E-02-1.64802E-04
 -1      4056-1.62907E-01-8.28648E-02-5.53110E-05
 -1      4057-1.50169E-01-7.46665E-02-3.19128E-04
 -1      4058-2.34362E-01-1.14186E-01-4.13535E-04
 -1      4059-1.23761E-01-6.02637E-02 8.16786E-05
 -1      4060-1.91651E-01-8.98992E-02 3.14451E-04
 -1      4061-1.74615E-01-8.20473E-02-1.08054E-04
 -1      4062-1.59780E-01-7.47834E-02-3.01468E-04
 -1      4063-5.86310E-02-1.27001E-02 5.06743E-04
 -1      4064-9.70562E-02-7.15016E-02 1.04365E-03
 -1      4065-8.91993E-02-5.10844E-02 1.48011E-03
 -1      4066-8.53894E-02-5.38527E-02 1.30718E-04
 -1      4067-6.37388E-02-4.22729E-02 8.68172E-04
 -1      4068-1.48299E-01-9.75543E-02 1.03984E-03
 -1      4069-8.95913E-02-5.15512E-02 1.45081E-03
 -1      4070-1.07246E-01-7.91488E-02 5.83571E-04
 -1      4071-1.20348E-01-6.93207E-02-9.44809E-04
 -1      4072-8.00006E-02-5.07477E-02-1.02749E-03
 -1      4073-1.09066E-01-7.25084E-02-3.46811E-04
 -1      4074-9.03527E-02-6.54332E-02-1.42216E-03
 -1      4075-1.26838E-01-1.00905E-01-8.99685E-04
 -1      4076-6.90311E-02-6.76384E-02-7.27847E-04
 -1      4077-6.64307E-02-7.17921E-02-1.74183E-03
 -1      4078-4.24932E-02-4.73450E-02-1.43724E-03
 -1      4079-1.11647E-01-4.28698E-02 1.72542E-03
 -1      4080-1.08385E-01-4.69876E-02 5.43551E-04
 -1      4081-6.99569E-02-2.50073E-02 1.33251E-03
 -1      4082 8.35880E-04-1.47632E-02-6.17851E-04
 -1      4083 2.68048E-03-1.12201E-02-5.53240E-04
 -1      4084-1.29678E-03-1.33853E-02-2.11341E-04
 -1      4085 3.66949E-04-1.04753E-02-3.04759E-04
 -1      4086-7.06988E-02-7.13553E-02-2.72411E-03
 -1      4087-7.48487E-02-6.74696E-02-9.64819E-04
 -1      4088-9.81855E-02-3.68017E-02 2.48407E-03
 -1      4089-9.34054E-02-4.19232E-02 9.73386E-04
 -1      4090-9.83556E-02-4.12459E-02 1.02908E-03
 -1      4091-2.05491E-02-6.32577E-03 6.90899E-04
 -1      4092-8.06433E-03-2.24956E-02-6.28468E-04
 -1      4093-1.09822E-01-4.87974E-02 6.14515E-04
 -1      4094-7.64710E-03-2.77076E-03 4.75979E-04
 -1      4095 1.61974E-03-9.49743E-03-2.40733E-04
 -1      4096 3.72508E-04-1.14555E-02-4.48198E-04
 -1      4097-4.85666E-02-1.16670E-02 3.91801E-04
 -1      4098-1.51657E-01-7.09402E-02-4.72789E-04
 -1      4099-1.47988E-01-7.03251E-02-4.20343E-04
 -1      4100-9.48053E-02-4.36856E-02-5.77921E-04
 -1      4101-7.44246E-02-3.16941E-02-7.26299E-05
 -1      4102-1.25508E-01-5.19665E-02-1.98113E-04
 -1      4103-1.43226E-01-6.61182E-02-6.62579E-04
 -1      4104-1.37767E-01-6.53651E-02-4.47091E-04
 -1      4105-4.03622E-02-1.21626E-02-1.90207E-05
 -1      4106-3.37727E-02-5.68611E-03 2.01471E-04
 -1      4107-5.83366E-02-2.04600E-02 9.15634E-05
 -1      4108-9.55920E-02-3.13803E-02 1.52277E-05
 -1      4109-8.32216E-02-5.62541E-02 5.92945E-07
 -1      4110-1.30855E-01-9.91629E-02 9.39067E-04
 -1      4111-2.56634E-02-3.69343E-02-5.55640E-04
 -1      4112-4.98824E-02-5.73620E-02-8.73244E-04
 -1      4113-3.25385E-02-3.01303E-02-1.88248E-04
 -1      4114-4.11052E-02-1.62511E-02 5.76570E-04
 -1      4115-6.71765E-02-3.38793E-02 8.49085E-04
 -1      4116-3.65857E-02-2.45709E-02 1.76874E-04
 -1      4117-9.45842E-02-3.90872E-02-4.93590E-04
 -1      4118-1.40671E-01-6.81727E-02-1.40657E-03
 -1      4119-7.56319E-02-6.53920E-02 1.28415E-03
 -1      4120-1.36878E-01-1.04486E-01 2.53142E-04
 -1      4121-8.63159E-02-4.87999E-02-3.98417E-04
 -1      4122-1.01190E-01-4.26925E-02-6.87500E-05
 -1      4123-1.54744E-01-6.57930E-02-2.67811E-04
 -1      4124-8.60018E-02-4.12040E-02 5.23032E-05
 -1      4125-1.41439E-01-6.50480E-02-2.94176E-08
 -1      4126-8.46684E-02-5.89890E-02-1.24895E-04
 -1      4127-8.41009E-02-5.69698E-02 7.08594E-04
 -1      4128-8.75806E-02-3.27026E-02 4.76290E-05
 -1      4129-1.37653E-01-5.26763E-02 1.07680E-04
 -1      4130-7.93510E-02-3.16671E-02-5.86686E-05
 -1      4131-9.50268E-02-4.13007E-02-9.08249E-05
 -1      4132-4.90523E-02-5.39683E-02 9.04330E-04
 -1      4133-8.78272E-02-8.02548E-02 1.84226E-03
 -1      4134-5.68351E-02-4.37390E-02 7.05277E-04
 -1      4135-1.16317E-01-6.55323E-02 1.32630E-04
 -1      4136-1.81679E-01-1.07968E-01 7.67768E-05
 -1      4137-1.20728E-01-6.29215E-02-7.69824E-05
 -1      4138-2.00246E-01-9.93229E-02-4.64329E-04
 -1      4139-2.02741E-02-4.37479E-03 1.03776E-05
 -1      4140-1.10184E-01-6.87444E-02 3.28304E-04
 -1      4141-1.29386E-01-6.05130E-02-7.09503E-05
 -1      4142-3.33287E-02-4.67319E-03-3.26361E-04
 -1      4143-2.43076E-02-2.84079E-03-2.34293E-04
 -1      4144-6.30465E-02-2.01379E-02 1.64012E-04
 -1      4145-8.20340E-02-4.33054E-02-4.37113E-04
 -1      4146-3.14367E-02-9.34525E-03 1.02956E-03
 -1      4147-1.59267E-02-3.04628E-02-1.02879E-03
 -1      4148-3.57440E-02-4.36310E-02 1.10075E-03
 -1      4149-4.82087E-02-5.08889E-02 1.19984E-03
 -1      4150-5.74849E-02-5.70315E-02 1.42673E-03
 -1      4151-7.09786E-02-7.02380E-02 1.75428E-03
 -1      4152-7.40288E-02-6.53976E-02 9.61113E-04
 -1      4153-5.38716E-02-1.91475E-02-1.22647E-03
 -1      4154-1.07963E-01-4.23346E-02-1.22150E-03
 -1      4155-8.88283E-02-3.42482E-02-1.29954E-03
 -1      4156-6.36214E-02-2.00064E-02-4.69999E-04
 -1      4157-9.31334E-02-6.17958E-02 4.66797E-04
 -1      4158-6.04576E-02-2.49891E-02-3.11748E-04
 -1      4159-9.05153E-02-3.89975E-02-5.34238E-04
 -1      4160-1.14429E-01-6.07800E-02-2.33840E-04
 -1      4161-1.76566E-01-9.73337E-02-7.64245E-05
 -1      4162-1.26680E-01-5.56474E-02-1.00582E-03
 -1      4163-1.12105E-01-5.01617E-02-7.25869E-04
 -1      4164-4.65657E-02-2.13328E-02-2.92995E-04
 -1      4165-9.21213E-02-4.14078E-02 1.68873E-04
 -1      4166-9.72152E-02-4.38899E-02 2.17772E-04
 -1      4167-1.07534E-01-6.20391E-02-3.63533E-04
 -1      4168-1.26495E-01-5.92604E-02 2.19705E-04
 -1      4169-1.93537E-01-9.40956E-02 5.94849E-04
 -1      4170-2.77071E-02-6.79586E-03-1.09756E-04
 -1      4171-8.19707E-02-3.16043E-02 2.31231E-04
 -1      4172-1.17498E-01-5.91416E-02 3.02782E-04
 -1      4173-7.62971E-02-3.77896E-02-5.28249E-05
 -1      4174-5.31314E-02-1.98131E-02-1.90071E-05
 -1      4175-1.09578E-01-5.10587E-02 7.00325E-04
 -1      4176-7.13450E-02-2.54305E-02 1.57857E-04
 -1      4177-9.27010E-02-5.50797E-02-8.05102E-05
 -1      4178-4.98329E-02-1.63968E-02 2.01009E-03
 -1      4179-4.71895E-02-2.22390E-02 1.13783E-03
 -1      4180-3.26147E-02-4.23979E-02-1.09738E-03
 -1      4181-9.03048E-02-8.40783E-02 2.73512E-03
 -1      4182-2.74324E-02-4.65563E-02-2.09556E-03
 -1      4183-9.58080E-02-7.75878E-02 1.31050E-03
 -1      4184-6.25187E-02-6.19339E-02 1.23644E-03
 -1      4185-5.70817E-02-6.61278E-02 2.54492E-03
 -1      4186-1.26067E-01-4.95076E-02-2.49504E-03
 -1      4187-1.19305E-01-5.58180E-02-1.30807E-03
 -1      4188-1.38203E-01-8.93299E-02 1.37281E-03
 -1      4189-1.42655E-01-8.72177E-02 4.52121E-04
 -1      4190-9.18334E-02-3.87989E-02-1.86401E-04
 -1      4191-9.54559E-02-3.87701E-02-1.69643E-04
 -1      4192-1.26883E-01-5.46947E-02-3.63473E-04
 -1      4193-1.31108E-01-5.57496E-02-3.33605E-04
 -1      4194-1.66159E-01-7.55395E-02-1.36216E-03
 -1      4195-7.58736E-02-2.75392E-02 1.63758E-04
 -1      4196-1.10670E-01-5.39425E-02 2.25721E-04
 -1      4197-1.59468E-01-7.75585E-02-7.37601E-04
 -1      4198-1.56047E-01-7.52933E-02 5.87303E-04
 -1      4199-2.32476E-02-2.42967E-02-9.32180E-04
 -1      4200-3.28049E-02-1.16517E-02 8.99147E-04
 -1      4201-7.37478E-02-6.49052E-02-9.53018E-04
 -1      4202-1.36493E-01-7.98505E-02-8.33392E-04
 -1      4203-1.09104E-01-3.99369E-02 2.58474E-04
 -1      4204-1.14902E-01-5.43209E-02 7.62063E-05
 -1      4205-1.05885E-01-3.91740E-02 2.94015E-04
 -1      4206-7.93437E-02-2.73902E-02 1.06022E-04
 -1      4207-1.41452E-01-7.99512E-02-2.19574E-04
 -1      4208-1.62088E-01-7.56099E-02 7.61329E-04
 -1      4209-8.95223E-02-3.45933E-02-7.73719E-05
 -1      4210-5.22169E-02-2.07426E-02 4.06173E-05
 -1      4211-7.28407E-02-2.33014E-02-5.03021E-05
 -1      4212-3.74127E-02-3.04153E-02 1.05333E-04
 -1      4213-2.19975E-02-2.00005E-02-5.56026E-04
 -1      4214-2.48990E-02-1.62908E-02 4.24628E-04
 -1      4215-9.36925E-02-5.94320E-02 3.02456E-04
 -1      4216-9.56500E-02-5.76956E-02-1.78947E-04
 -1      4217-8.92796E-02-5.89281E-02 2.78165E-04
 -1      4218-5.20356E-02-3.04344E-02-2.50373E-04
 -1      4219-5.36261E-02-3.61302E-02 4.08605E-04
 -1      4220-6.52702E-02-4.50330E-02-1.50916E-04
 -1      4221-3.78274E-02-2.76192E-02-1.02148E-04
 -1      4222-3.79207E-02-1.18240E-02 4.05155E-05
 -1      4223-5.06059E-02-2.07102E-02 5.33836E-05
 -1      4224-1.32983E-01-7.27441E-02 5.85796E-05
 -1      4225-7.23137E-02-4.08299E-02 2.61572E-04
 -1      4226-7.56831E-02-3.92832E-02-1.87282E-04
 -1      4227-3.56854E-02-1.05972E-02 9.14525E-04
 -1      4228-6.09864E-02-5.74317E-02 1.11960E-03
 -1      4229-1.92932E-02-3.32844E-02-8.77704E-04
 -1      4230-3.88643E-02-4.64763E-02 1.12210E-03
 -1      4231-8.15178E-02-3.03540E-02-1.14367E-03
 -1      4232-8.88795E-02-6.38660E-02-1.76426E-03
 -1      4233-6.17351E-02-2.65280E-02-2.15529E-04
 -1      4234-9.10464E-02-5.93961E-02 4.31965E-04
 -1      4235-8.51401E-02-3.57576E-02-4.15269E-04
 -1      4236-1.05825E-01-4.73651E-02-6.04451E-05
 -1      4237-5.84111E-02-2.49481E-02 4.15031E-05
 -1      4238-1.30410E-01-6.79352E-02 6.46925E-05
 -1      4239-1.58682E-01-7.99872E-02-4.74206E-05
 -1      4240-7.27281E-02-3.63367E-02-8.97457E-05
 -1      4241-5.64002E-02-2.48281E-02 3.04842E-05
 -1      4242-1.09572E-01-4.93211E-02-7.46869E-04
 -1      4243-7.14967E-02-3.48033E-02 7.59144E-05
 -1      4244-4.85473E-02-1.74564E-02 8.10135E-05
 -1      4245-7.04949E-02-3.70087E-02-7.24024E-05
 -1      4246-1.19393E-01-5.81896E-02-1.78248E-04
 -1      4247-1.04874E-01-4.84038E-02 5.81264E-04
 -1      4248-8.80798E-02-5.20081E-02-2.37311E-04
 -1      4249-7.28054E-02-2.69327E-02 2.83091E-04
 -1      4250-8.95414E-02-3.28679E-02 1.64420E-03
 -1      4251-6.18580E-02-2.11562E-02 1.53858E-03
 -1      4252-8.64410E-02-3.68679E-02 8.50711E-04
 -1      4253-8.19152E-02-7.29899E-02-6.27176E-04
 -1      4254-4.99121E-02-5.08837E-02-1.53100E-03
 -1      4255-7.93863E-02-7.61028E-02-1.61424E-03
 -1      4256-1.38303E-01-6.32627E-02-5.14106E-04
 -1      4257-9.12432E-02-4.19118E-02-3.28586E-04
 -1      4258-1.35001E-01-6.29127E-02-4.79976E-04
 -1      4259 2.34808E-03-4.67542E-03 6.71202E-05
 -1      4260 1.41484E-03-6.90598E-03-9.01755E-05
 -1      4261-7.52744E-02-6.06552E-02-8.93417E-04
 -1      4262 3.60061E-04-1.35279E-03-1.99765E-04
 -1      4263-3.24071E-04-6.60450E-04-5.07425E-06
 -1      4264-3.41130E-04-1.32520E-03-2.01519E-04
 -1      4265-3.99749E-04-1.55946E-03-3.85708E-05
 -1      4266-1.13803E-03-9.09822E-04-1.63299E-04
 -1      4267-1.64426E-03-2.48654E-03-2.07235E-04
 -1      4268-4.22098E-03-9.54851E-04 2.14966E-04
 -1      4269-2.44095E-03-2.37737E-03 2.01373E-03
 -1      4270-4.62565E-03-1.57409E-03 1.04772E-03
 -1      4271-6.58731E-03-3.14901E-03 1.44061E-03
 -1      4272-3.84743E-02-7.18143E-03-2.65065E-05
 -1      4273-1.72408E-02-1.59082E-02 2.17019E-04
 -1      4274-6.66134E-03-9.34137E-03-1.70530E-04
 -1      4275-5.14151E-02-1.26517E-02 1.34705E-04
 -1      4276 2.10121E-03-7.05082E-04 7.70460E-05
 -1      4277 3.00392E-03-1.41983E-04 8.60428E-05
 -1      4278 2.32941E-03-4.09843E-04 1.11431E-04
 -1      4279 2.47047E-03-9.30039E-05 2.12758E-04
 -1      4280 3.48899E-03-7.68981E-03-5.47715E-04
 -1      4281 3.05019E-03-4.73371E-03-3.05597E-04
 -1      4282-1.23816E-01-6.94728E-02 2.85536E-04
 -1      4283 6.30490E-04-2.51779E-03-3.69295E-04
 -1      4284-2.24848E-05-2.04208E-03-1.83574E-04
 -1      4285-1.05994E-01-6.16279E-02 1.75404E-04
 -1      4286-2.47133E-02-2.62828E-03 2.84743E-06
 -1      4287 3.59481E-04-1.55915E-03 1.85252E-04
 -1      4288-1.93341E-04-6.39285E-04 4.10951E-05
 -1      4289-3.20091E-04-1.91173E-03 2.12829E-04
 -1      4290-6.90005E-04-1.69421E-03 5.04933E-05
 -1      4291-4.11976E-03 1.55310E-03-1.59886E-03
 -1      4292-5.46108E-03 5.31105E-05-2.81374E-04
 -1      4293-7.08269E-03 1.37929E-03-7.54521E-04
 -1      4294-4.96712E-03 9.13745E-04-5.63588E-04
 -1      4295-9.54020E-04-2.45470E-03-7.84920E-05
 -1      4296-2.34507E-03-2.15772E-03-2.13042E-03
 -1      4297-4.17431E-03-9.57492E-04-1.39328E-04
 -1      4298-5.42709E-03-2.47439E-03-1.29792E-03
 -1      4299-4.40502E-03-1.37851E-03-1.12961E-03
 -1      4300 2.08704E-03-8.13063E-04-7.42312E-05
 -1      4301 3.00798E-03-1.74557E-05-1.41219E-04
 -1      4302 1.72839E-03 2.94988E-04-1.15068E-04
 -1      4303 3.68858E-03-5.02666E-04-1.23311E-04
 -1      4304 2.15799E-03-1.48997E-03-2.03913E-04
 -1      4305-4.06265E-03 1.64257E-03-3.96177E-04
 -1      4306-6.80730E-03 5.78277E-04-3.85059E-04
 -1      4307 6.34742E-04 9.65484E-04 2.39596E-04
 -1      4308 2.55296E-03 1.38617E-03 2.04845E-04
 -1      4309-4.16722E-03 1.57525E-03 1.59640E-03
 -1      4310-5.50838E-03 5.93692E-05 2.84686E-04
 -1      4311-7.19505E-03 1.41496E-03 7.22095E-04
 -1      4312-5.05937E-03 9.54942E-04 5.39983E-04
 -1      4313-6.93977E-02-6.26704E-02 1.13562E-03
 -1      4314-6.42732E-02-6.77596E-02 2.65399E-03
 -1      4315-5.67362E-03 2.62446E-03-1.59019E-03
 -1      4316-4.02251E-03 1.54866E-03 3.35341E-04
 -1      4317-6.89422E-03 6.41234E-04 3.35724E-04
 -1      4318 3.38375E-03 7.65532E-04-1.08232E-04
 -1      4319 2.68811E-03 6.83225E-04 9.82232E-05
 -1      4320 2.15164E-03 1.50313E-03 1.72491E-04
 -1      4321-1.81256E-03 9.31405E-05 9.62732E-04
 -1      4322-2.45144E-03-1.88079E-04-6.43793E-04
 -1      4323-4.37570E-03 6.01954E-04-2.13987E-03
 -1      4324-2.68561E-05-1.94873E-03 1.28513E-04
 -1      4325-4.36272E-03-1.12799E-03 3.07032E-03
 -1      4326-4.10653E-03-7.79702E-04 5.88520E-04
 -1      4327-5.78128E-03 2.66019E-03 1.58533E-03
 -1      4328-2.45518E-03-1.91313E-04 6.52314E-04
 -1      4329-4.42155E-03 6.17031E-04 2.15145E-03
 -1      4330-3.89023E-02-1.15484E-02 1.05942E-03
 -1      4331-4.98114E-02-2.01494E-02 4.62007E-04
 -1      4332-5.16046E-02-1.68412E-02 1.20784E-03
 -1      4333-3.28653E-02-4.35818E-02-5.57590E-04
 -1      4334-2.99967E-02-4.63331E-02-1.27196E-03
 -1      4335-2.20948E-02-3.46549E-02-1.06186E-03
 -1      4336-9.76270E-02-4.22182E-02-9.80587E-04
 -1      4337-1.01065E-01-3.78221E-02-1.59613E-03
 -1      4338-7.07686E-02-2.55440E-02-1.28304E-03
 -1      4339-6.16589E-02-5.52092E-02 1.35544E-03
 -1      4340-8.53455E-02-7.61089E-02 1.75057E-03
 -1      4341-8.74305E-02-7.25791E-02 8.72916E-04
 -1      4342-8.50536E-02-3.61234E-02-2.76682E-06
 -1      4343-6.00617E-02-2.69467E-02-1.32359E-04
 -1      4344-8.28911E-02-3.61377E-02-1.17361E-04
 -1      4345-8.48667E-02-5.37240E-02 4.57623E-04
 -1      4346-1.19555E-01-7.64016E-02 9.18548E-04
 -1      4347-1.21679E-01-7.50530E-02 6.04325E-04
 -1      4348-7.65070E-02-3.10834E-02-3.48776E-04
 -1      4349-1.08981E-01-4.53755E-02-2.30476E-04
 -1      4350-1.06504E-01-4.46007E-02-2.15191E-04
 -1      4351-1.39354E-01-6.63719E-02-4.98661E-04
 -1      4352-1.01565E-01-4.60975E-02-5.94081E-04
 -1      4353-1.43267E-01-6.59140E-02-7.25087E-04
 -1      4354-9.62341E-02-3.67782E-02 4.20659E-04
 -1      4355-7.08375E-02-2.74330E-02 3.21626E-04
 -1      4356-9.82808E-02-3.71539E-02 3.99771E-04
 -1      4357-2.76492E-05-2.75156E-03 3.91334E-04
 -1      4358-1.00032E-03-1.43834E-03 1.85221E-04
 -1      4359-9.38777E-02-4.36765E-02 2.35513E-04
 -1      4360-6.39014E-02-2.99885E-02 1.37898E-04
 -1      4361-9.16738E-02-4.39296E-02 3.06214E-04
 -1      4362-1.33655E-01-6.36862E-02 3.49482E-04
 -1      4363-1.37106E-01-6.40089E-02 4.13270E-04
 -1      4364-9.61124E-02-4.41646E-02 4.94225E-04
 -1      4365-6.93023E-03-2.34473E-03-2.90297E-04
 -1      4366-6.12512E-02-2.14406E-02 2.40494E-04
 -1      4367-6.31333E-02-2.10617E-02 2.25954E-04
 -1      4368-4.22985E-02-1.43385E-02 1.37563E-04
 -1      4369-9.27284E-02-3.82004E-02-9.34356E-04
 -1      4370-1.89638E-02-6.11639E-03-6.10324E-04
 -1      4371-9.53012E-02-4.11439E-02-8.06500E-04
 -1      4372-4.56960E-02-1.10349E-02-3.53033E-04
 -1      4373-4.06131E-03-2.40681E-03-7.79865E-04
 -1      4374-5.63418E-03-3.56804E-03-2.52286E-03
 -1      4375-5.45122E-03-1.14800E-03-8.34759E-04
 -1      4376 6.48528E-04 9.16561E-04-2.25155E-04
 -1      4377 1.93196E-03 1.51286E-03-1.49493E-04
 -1      4378 1.76552E-03 1.20805E-03-1.85774E-04
 -1      4379-1.76036E-03 6.78630E-05-9.66840E-04
 -1      4380-8.06356E-02-4.62336E-02-3.55070E-04
 -1      4381-1.17902E-01-6.64284E-02-4.71642E-04
 -1      4382-1.14926E-01-6.67834E-02-6.71961E-04
 -1      4383-3.77537E-03-2.20404E-03 9.42836E-04
 -1      4384-6.21851E-03-3.10553E-03 2.39453E-03
 -1      4385-3.10743E-02-5.07187E-03-3.09507E-04
 -1      4386-9.06214E-04-9.46813E-04 4.69834E-05
 -1      4387-4.31417E-03-1.19432E-03-3.06459E-03
 -1      4388-5.64525E-02-6.27351E-02 1.57638E-03
 -1      4389-5.88315E-02-5.88810E-02 7.97332E-04
 -1      4390-4.12317E-02-4.63456E-02 1.52306E-03
 -1      4391-9.99380E-04-2.23636E-03 2.12693E-04
 -1      4392-3.76605E-04-6.15157E-03-8.27048E-05
 -1      4393 2.52196E-03 7.54791E-04-2.33637E-05
 -1      4394 3.32622E-03 1.44418E-03 7.62447E-05
 -1      4395-1.58510E-04-3.56554E-03-5.26277E-05
 -1      4396 3.06462E-03-2.04073E-03-1.18951E-04
 -1      4397 2.04521E-03-3.15271E-03-9.52821E-05
 -1      4398 1.25530E-03-6.23515E-03-1.47714E-04
 -1      4399 1.76995E-03-4.72315E-03-2.55309E-04
 -1      4400 2.17898E-03-5.95344E-03-2.61921E-04
 -1      4401 2.48834E-03-3.05997E-03-1.38285E-04
 -1      4402 2.26776E-03-4.15643E-03-2.19473E-04
 -1      4403 4.83413E-04-1.08656E-02 5.06623E-04
 -3
    1PSTEP                         4           1           1          
  100CL  101 1.000000000        4403                     0    1           1
 -4  ERROR       1    1
 -5  STR(%)      1    1    0    0
 -1         1 1.21111E+01
 -1         2 1.21143E+01
 -1         3 1.15455E+01
 -1         4 1.14755E+01
 -1         5 1.71623E+01
 -1         6 1.71336E+01
 -1         7 3.07422E+01
 -1         8 2.92476E+01
 -1         9 1.10206E+01
 -1        10 1.11662E+01
 -1        11 1.07988E+01
 -1        12 1.15674E+01
 -1        13 1.10934E+01
 -1        14 1.09825E+01
 -1        15 1.14550E+01
 -1        16 1.70786E+01
 -1        17 3.04429E+01
 -1        18 1.52316E+01
 -1        19 1.45948E+01
 -1        20 2.37607E+01
 -1        21 2.28373E+01
 -1        22 1.33886E+01
 -1        23 8.66178E+00
 -1        24 9.77671E+00
 -1        25 9.96494E+00
 -1        26 1.00687E+01
 -1        27 9.21924E+00
 -1        28 9.87082E+00
 -1        29 1.07552E+01
 -1        30 1.70573E+01
 -1        31 3.02270E+01
 -1        32 1.51141E+01
 -1        33 1.45858E+01
 -1        34 2.36422E+01
 -1        35 2.26706E+01
 -1        36 1.32948E+01
 -1        37 2.93889E+01
 -1        38 2.79654E+01
 -1        39 2.79520E+01
 -1        40 2.32613E+01
 -1        41 2.86772E+01
 -1        42 2.79587E+01
 -1        43 2.25572E+01
 -1        44 1.71623E+01
 -1        45 9.05090E+00
 -1        46 1.23242E+01
 -1        47 1.71623E+01
 -1        48 1.31066E+01
 -1        49 1.06875E+01
 -1        50 2.15332E+01
 -1        51 3.36397E+01
 -1        52 3.20975E+01
 -1        53 3.35671E+01
 -1        54 3.14436E+01
 -1        55 3.28686E+01
 -1        56 3.28323E+01
 -1        57 3.21546E+01
 -1        58 1.71336E+01
 -1        59 9.18711E+00
 -1        60 1.23775E+01
 -1        61 1.71336E+01
 -1        62 1.31604E+01
 -1        63 1.07823E+01
 -1        64 2.08126E+01
 -1        65 9.41238E+00
 -1        66 9.00918E+00
 -1        67 8.59049E+00
 -1        68 1.21844E+01
 -1        69 8.67054E+00
 -1        70 1.20193E+01
 -1        71 8.66771E+00
 -1        72 8.62056E+00
 -1        73 1.19032E+01
 -1        74 1.07177E+01
 -1        75 8.55251E+00
 -1        76 8.62600E+00
 -1        77 1.17209E+01
 -1        78 8.42389E+00
 -1        79 1.02549E+01
 -1        80 1.13953E+01
 -1        81 8.53499E+00
 -1        82 8.49802E+00
 -1        83 1.14714E+01
 -1        84 8.21728E+00
 -1        85 1.11009E+01
 -1        86 8.23867E+00
 -1        87 1.01967E+01
 -1        88 9.38767E+00
 -1        89 8.42836E+00
 -1        90 9.29261E+00
 -1        91 1.01005E+01
 -1        92 1.06671E+01
 -1        93 8.34895E+00
 -1        94 9.68432E+00
 -1        95 8.78720E+00
 -1        96 9.19862E+00
 -1        97 9.97700E+00
 -1        98 1.07633E+01
 -1        99 9.21078E+00
 -1       100 8.79983E+00
 -1       101 1.03874E+01
 -1       102 1.04275E+01
 -1       103 1.03449E+01
 -1       104 1.03435E+01
 -1       105 8.64414E+00
 -1       106 1.02619E+01
 -1       107 1.13104E+01
 -1       108 9.63509E+00
 -1       109 8.58925E+00
 -1       110 1.01734E+01
 -1       111 1.00724E+01
 -1       112 9.33940E+00
 -1       113 1.08251E+01
 -1       114 9.96514E+00
 -1       115 8.51651E+00
 -1       116 9.98472E+00
 -1       117 9.84435E+00
 -1       118 9.65907E+00
 -1       119 9.66976E+00
 -1       120 9.21768E+00
 -1       121 9.79218E+00
 -1       122 8.90801E+00
 -1       123 8.86048E+00
 -1       124 9.69656E+00
 -1       125 1.03838E+01
 -1       126 9.50801E+00
 -1       127 9.01664E+00
 -1       128 9.23576E+00
 -1       129 8.99291E+00
 -1       130 9.58781E+00
 -1       131 1.35553E+01
 -1       132 9.40282E+00
 -1       133 9.01025E+00
 -1       134 1.20716E+01
 -1       135 1.14900E+01
 -1       136 8.78342E+00
 -1       137 1.13290E+01
 -1       138 8.73494E+00
 -1       139 1.18733E+01
 -1       140 8.58675E+00
 -1       141 8.68625E+00
 -1       142 1.04731E+01
 -1       143 1.16675E+01
 -1       144 8.31103E+00
 -1       145 1.05656E+01
 -1       146 1.01139E+01
 -1       147 8.32485E+00
 -1       148 1.01327E+01
 -1       149 1.12145E+01
 -1       150 9.59896E+00
 -1       151 8.45889E+00
 -1       152 1.03633E+01
 -1       153 1.12210E+01
 -1       154 1.00321E+01
 -1       155 8.49876E+00
 -1       156 1.05361E+01
 -1       157 8.01691E+00
 -1       158 8.49370E+00
 -1       159 1.00327E+01
 -1       160 8.42916E+00
 -1       161 9.43821E+00
 -1       162 7.78795E+00
 -1       163 7.02197E+00
 -1       164 1.00339E+01
 -1       165 1.07570E+01
 -1       166 9.20653E+00
 -1       167 1.05409E+01
 -1       168 1.17808E+01
 -1       169 1.01367E+01
 -1       170 1.00562E+01
 -1       171 1.00320E+01
 -1       172 1.03041E+01
 -1       173 1.02300E+01
 -1       174 8.63650E+00
 -1       175 9.57969E+00
 -1       176 1.10703E+01
 -1       177 9.98924E+00
 -1       178 9.43831E+00
 -1       179 1.03397E+01
 -1       180 9.21936E+00
 -1       181 9.22876E+00
 -1       182 1.06736E+01
 -1       183 1.04067E+01
 -1       184 9.02892E+00
 -1       185 9.41108E+00
 -1       186 1.07921E+01
 -1       187 1.06265E+01
 -1       188 9.26542E+00
 -1       189 9.51744E+00
 -1       190 9.27651E+00
 -1       191 8.25530E+00
 -1       192 9.26318E+00
 -1       193 9.23091E+00
 -1       194 8.93369E+00
 -1       195 8.61308E+00
 -1       196 7.40496E+00
 -1       197 8.52792E+00
 -1       198 1.35981E+01
 -1       199 8.12667E+00
 -1       200 7.97173E+00
 -1       201 9.96024E+00
 -1       202 7.36597E+00
 -1       203 7.45724E+00
 -1       204 7.37408E+00
 -1       205 9.12324E+00
 -1       206 1.02838E+01
 -1       207 7.55988E+00
 -1       208 7.60606E+00
 -1       209 9.26208E+00
 -1       210 1.04468E+01
 -1       211 7.62168E+00
 -1       212 7.62142E+00
 -1       213 7.65712E+00
 -1       214 8.08333E+00
 -1       215 9.47473E+00
 -1       216 1.06728E+01
 -1       217 8.05814E+00
 -1       218 8.16933E+00
 -1       219 8.11899E+00
 -1       220 9.59459E+00
 -1       221 1.07573E+01
 -1       222 9.46502E+00
 -1       223 1.08491E+01
 -1       224 8.79079E+00
 -1       225 8.90130E+00
 -1       226 9.19287E+00
 -1       227 8.51342E+00
 -1       228 9.84299E+00
 -1       229 1.04565E+01
 -1       230 1.14467E+01
 -1       231 1.89435E+01
 -1       232 9.80110E+00
 -1       233 8.04920E+00
 -1       234 8.96599E+00
 -1       235 8.66311E+00
 -1       236 7.41161E+00
 -1       237 7.41566E+00
 -1       238 8.24866E+00
 -1       239 9.70351E+00
 -1       240 8.92183E+00
 -1       241 7.58297E+00
 -1       242 8.43407E+00
 -1       243 9.85445E+00
 -1       244 9.03425E+00
 -1       245 7.62155E+00
 -1       246 7.63927E+00
 -1       247 7.87022E+00
 -1       248 8.77903E+00
 -1       249 1.00738E+01
 -1       250 9.36546E+00
 -1       251 8.11374E+00
 -1       252 8.14416E+00
 -1       253 8.85679E+00
 -1       254 1.01759E+01
 -1       255 1.01112E+01
 -1       256 1.01571E+01
 -1       257 9.81995E+00
 -1       258 8.84605E+00
 -1       259 9.04708E+00
 -1       260 8.85315E+00
 -1       261 9.17821E+00
 -1       262 1.01498E+01
 -1       263 1.09516E+01
 -1       264 1.51951E+01
 -1       265 2.40956E+01
 -1       266 8.14278E+00
 -1       267 7.97031E+00
 -1       268 7.52330E+00
 -1       269 1.03366E+01
 -1       270 7.45265E+00
 -1       271 1.03254E+01
 -1       272 7.67627E+00
 -1       273 7.75060E+00
 -1       274 1.04968E+01
 -1       275 9.48784E+00
 -1       276 7.89061E+00
 -1       277 7.73012E+00
 -1       278 1.06590E+01
 -1       279 7.76330E+00
 -1       280 9.40679E+00
 -1       281 1.06169E+01
 -1       282 7.90294E+00
 -1       283 8.21978E+00
 -1       284 8.09568E+00
 -1       285 7.94443E+00
 -1       286 1.05707E+01
 -1       287 8.43362E+00
 -1       288 1.01988E+01
 -1       289 9.41796E+00
 -1       290 8.70439E+00
 -1       291 9.65651E+00
 -1       292 1.06774E+01
 -1       293 1.15793E+01
 -1       294 9.26543E+00
 -1       295 1.08596E+01
 -1       296 1.04576E+01
 -1       297 1.03575E+01
 -1       298 1.90562E+01
 -1       299 9.84416E+00
 -1       300 8.05655E+00
 -1       301 7.74681E+00
 -1       302 8.92996E+00
 -1       303 8.89463E+00
 -1       304 8.88903E+00
 -1       305 9.00084E+00
 -1       306 7.71343E+00
 -1       307 9.12371E+00
 -1       308 9.99233E+00
 -1       309 8.68923E+00
 -1       310 7.81037E+00
 -1       311 9.19457E+00
 -1       312 9.21116E+00
 -1       313 8.58504E+00
 -1       314 1.00118E+01
 -1       315 9.25991E+00
 -1       316 8.06136E+00
 -1       317 8.15773E+00
 -1       318 8.02006E+00
 -1       319 9.25757E+00
 -1       320 9.50216E+00
 -1       321 9.31622E+00
 -1       322 9.80839E+00
 -1       323 9.06118E+00
 -1       324 9.18045E+00
 -1       325 1.01669E+01
 -1       326 1.11283E+01
 -1       327 1.04224E+01
 -1       328 1.00625E+01
 -1       329 1.06586E+01
 -1       330 1.04075E+01
 -1       331 1.47068E+01
 -1       332 2.48992E+01
 -1       333 1.30154E+01
 -1       334 1.40183E+01
 -1       335 2.83762E+01
 -1       336 1.36605E+01
 -1       337 3.39387E+01
 -1       338 3.14745E+01
 -1       339 1.15168E+01
 -1       340 3.39387E+01
 -1       341 2.88022E+01
 -1       342 3.30667E+01
 -1       343 1.37090E+01
 -1       344 1.14755E+01
 -1       345 1.37456E+01
 -1       346 1.15455E+01
 -1       347 3.39387E+01
 -1       348 1.29101E+01
 -1       349 1.22539E+01
 -1       350 1.53938E+01
 -1       351 1.23831E+01
 -1       352 1.29299E+01
 -1       353 1.54014E+01
 -1       354 1.15455E+01
 -1       355 1.33886E+01
 -1       356 1.07552E+01
 -1       357 1.14755E+01
 -1       358 1.00687E+01
 -1       359 1.32948E+01
 -1       360 1.24133E+01
 -1       361 1.23405E+01
 -1       362 1.37030E+01
 -1       363 1.24085E+01
 -1       364 1.25922E+01
 -1       365 1.38394E+01
 -1       366 1.38637E+01
 -1       367 3.09587E+01
 -1       368 2.42765E+01
 -1       369 2.25918E+01
 -1       370 2.20169E+01
 -1       371 2.96226E+01
 -1       372 3.01384E+01
 -1       373 2.01739E+01
 -1       374 1.00893E+01
 -1       375 1.06468E+01
 -1       376 1.14962E+01
 -1       377 1.13960E+01
 -1       378 1.14902E+01
 -1       379 1.22661E+01
 -1       380 1.22805E+01
 -1       381 2.54980E+01
 -1       382 3.20829E+01
 -1       383 2.38422E+01
 -1       384 2.93016E+01
 -1       385 2.17452E+01
 -1       386 3.11575E+01
 -1       387 1.99259E+01
 -1       388 2.27278E+01
 -1       389 2.34771E+01
 -1       390 2.09088E+01
 -1       391 2.30410E+01
 -1       392 3.09344E+01
 -1       393 3.35027E+01
 -1       394 2.39785E+01
 -1       395 2.37996E+01
 -1       396 2.27464E+01
 -1       397 3.27066E+01
 -1       398 1.99465E+01
 -1       399 3.11575E+01
 -1       400 3.39387E+01
 -1       401 3.39387E+01
 -1       402 2.37996E+01
 -1       403 3.22706E+01
 -1       404 3.35027E+01
 -1       405 3.39387E+01
 -1       406 1.03884E+01
 -1       407 9.95160E+00
 -1       408 2.79654E+01
 -1       409 1.05403E+01
 -1       410 8.65282E+00
 -1       411 3.20975E+01
 -1       412 1.07827E+01
 -1       413 2.93889E+01
 -1       414 3.35671E+01
 -1       415 1.03884E+01
 -1       416 2.79520E+01
 -1       417 3.36397E+01
 -1       418 2.93889E+01
 -1       419 3.07422E+01
 -1       420 9.60863E+00
 -1       421 2.79520E+01
 -1       422 2.25572E+01
 -1       423 2.25572E+01
 -1       424 2.32613E+01
 -1       425 2.93889E+01
 -1       426 2.32613E+01
 -1       427 2.15332E+01
 -1       428 3.07422E+01
 -1       429 3.21546E+01
 -1       430 3.36397E+01
 -1       431 3.14436E+01
 -1       432 2.30086E+01
 -1       433 2.93889E+01
 -1       434 2.86772E+01
 -1       435 2.93889E+01
 -1       436 2.79654E+01
 -1       437 2.79587E+01
 -1       438 2.86772E+01
 -1       439 2.79587E+01
 -1       440 1.39725E+01
 -1       441 9.91680E+00
 -1       442 1.93674E+01
 -1       443 9.71962E+00
 -1       444 1.13563E+01
 -1       445 1.05855E+01
 -1       446 2.05653E+01
 -1       447 3.20975E+01
 -1       448 3.28686E+01
 -1       449 3.28686E+01
 -1       450 3.35671E+01
 -1       451 3.28323E+01
 -1       452 3.28323E+01
 -1       453 3.21546E+01
 -1       454 9.86373E+00
 -1       455 1.38370E+01
 -1       456 1.99646E+01
 -1       457 1.11646E+01
 -1       458 9.56936E+00
 -1       459 1.02460E+01
 -1       460 2.17956E+01
 -1       461 1.01957E+01
 -1       462 9.99849E+00
 -1       463 1.03884E+01
 -1       464 2.19777E+01
 -1       465 2.19777E+01
 -1       466 9.99849E+00
 -1       467 9.30221E+00
 -1       468 9.59659E+00
 -1       469 2.10245E+01
 -1       470 2.03751E+01
 -1       471 1.93741E+01
 -1       472 1.87870E+01
 -1       473 1.94988E+01
 -1       474 1.90209E+01
 -1       475 1.99646E+01
 -1       476 2.12429E+01
 -1       477 9.52059E+00
 -1       478 9.13073E+00
 -1       479 9.58886E+00
 -1       480 1.10624E+01
 -1       481 1.19294E+01
 -1       482 1.05762E+01
 -1       483 1.16038E+01
 -1       484 1.77998E+01
 -1       485 1.15996E+01
 -1       486 1.16097E+01
 -1       487 1.24317E+01
 -1       488 1.29406E+01
 -1       489 1.22665E+01
 -1       490 1.30938E+01
 -1       491 1.04779E+01
 -1       492 1.18121E+01
 -1       493 1.27732E+01
 -1       494 1.29794E+01
 -1       495 1.08975E+01
 -1       496 1.97544E+01
 -1       497 1.52590E+01
 -1       498 1.24874E+01
 -1       499 2.01581E+01
 -1       500 1.28171E+01
 -1       501 2.05298E+01
 -1       502 1.03584E+01
 -1       503 1.12568E+01
 -1       504 2.79654E+01
 -1       505 9.47246E+00
 -1       506 1.04861E+01
 -1       507 9.17518E+00
 -1       508 1.89860E+01
 -1       509 1.04955E+01
 -1       510 1.21443E+01
 -1       511 2.08983E+01
 -1       512 1.12330E+01
 -1       513 1.80927E+01
 -1       514 1.19006E+01
 -1       515 1.20841E+01
 -1       516 1.11577E+01
 -1       517 1.03990E+01
 -1       518 1.23307E+01
 -1       519 1.61801E+01
 -1       520 1.16203E+01
 -1       521 2.05924E+01
 -1       522 2.02448E+01
 -1       523 1.15677E+01
 -1       524 1.28975E+01
 -1       525 1.19715E+01
 -1       526 1.21660E+01
 -1       527 1.07485E+01
 -1       528 1.17563E+01
 -1       529 1.19294E+01
 -1       530 1.16104E+01
 -1       531 1.29732E+01
 -1       532 1.14493E+01
 -1       533 1.16104E+01
 -1       534 2.07286E+01
 -1       535 1.43083E+01
 -1       536 1.95757E+01
 -1       537 1.03922E+01
 -1       538 1.10499E+01
 -1       539 1.21625E+01
 -1       540 1.09026E+01
 -1       541 2.13822E+01
 -1       542 2.12160E+01
 -1       543 1.10010E+01
 -1       544 1.16706E+01
 -1       545 1.26883E+01
 -1       546 1.32864E+01
 -1       547 1.19414E+01
 -1       548 1.79544E+01
 -1       549 1.52590E+01
 -1       550 2.07289E+01
 -1       551 1.83008E+01
 -1       552 1.86619E+01
 -1       553 1.86553E+01
 -1       554 1.67487E+01
 -1       555 1.85336E+01
 -1       556 1.20364E+01
 -1       557 1.94532E+01
 -1       558 1.68064E+01
 -1       559 1.58518E+01
 -1       560 1.44841E+01
 -1       561 1.17538E+01
 -1       562 2.01376E+01
 -1       563 1.28623E+01
 -1       564 2.05182E+01
 -1       565 2.08940E+01
 -1       566 1.32110E+01
 -1       567 1.35807E+01
 -1       568 2.02958E+01
 -1       569 2.06102E+01
 -1       570 1.26706E+01
 -1       571 1.98823E+01
 -1       572 1.98833E+01
 -1       573 9.77721E+00
 -1       574 2.03279E+01
 -1       575 2.93889E+01
 -1       576 1.35854E+01
 -1       577 1.09175E+01
 -1       578 2.16057E+01
 -1       579 1.10055E+01
 -1       580 1.08954E+01
 -1       581 1.41601E+01
 -1       582 2.79520E+01
 -1       583 1.09175E+01
 -1       584 1.09022E+01
 -1       585 1.15583E+01
 -1       586 1.02042E+01
 -1       587 1.15048E+01
 -1       588 1.09580E+01
 -1       589 1.01539E+01
 -1       590 2.25572E+01
 -1       591 2.79520E+01
 -1       592 1.89929E+01
 -1       593 2.17745E+01
 -1       594 1.56469E+01
 -1       595 1.20686E+01
 -1       596 1.11387E+01
 -1       597 1.12115E+01
 -1       598 1.10761E+01
 -1       599 1.14184E+01
 -1       600 1.12347E+01
 -1       601 1.14637E+01
 -1       602 1.13381E+01
 -1       603 2.86772E+01
 -1       604 2.93889E+01
 -1       605 2.17745E+01
 -1       606 2.79587E+01
 -1       607 2.79654E+01
 -1       608 2.86772E+01
 -1       609 2.79587E+01
 -1       610 1.12973E+01
 -1       611 1.14989E+01
 -1       612 1.22404E+01
 -1       613 1.07849E+01
 -1       614 1.09943E+01
 -1       615 1.32824E+01
 -1       616 1.65414E+01
 -1       617 1.47444E+01
 -1       618 1.69389E+01
 -1       619 9.95177E+00
 -1       620 1.17087E+01
 -1       621 1.60657E+01
 -1       622 1.22255E+01
 -1       623 1.05511E+01
 -1       624 1.18324E+01
 -1       625 1.46982E+01
 -1       626 1.63740E+01
 -1       627 1.65802E+01
 -1       628 1.07806E+01
 -1       629 1.08042E+01
 -1       630 1.68346E+01
 -1       631 1.62478E+01
 -1       632 1.46065E+01
 -1       633 1.67665E+01
 -1       634 1.12649E+01
 -1       635 1.18576E+01
 -1       636 1.62022E+01
 -1       637 9.47238E+00
 -1       638 1.05550E+01
 -1       639 1.11022E+01
 -1       640 1.08599E+01
 -1       641 1.08232E+01
 -1       642 1.17430E+01
 -1       643 1.59828E+01
 -1       644 1.44354E+01
 -1       645 1.66693E+01
 -1       646 9.99580E+00
 -1       647 1.16443E+01
 -1       648 1.59063E+01
 -1       649 1.03664E+01
 -1       650 9.45091E+00
 -1       651 1.10228E+01
 -1       652 1.15758E+01
 -1       653 1.10056E+01
 -1       654 1.11171E+01
 -1       655 1.41447E+01
 -1       656 1.55748E+01
 -1       657 1.57554E+01
 -1       658 1.04144E+01
 -1       659 1.04329E+01
 -1       660 1.60426E+01
 -1       661 1.55236E+01
 -1       662 1.40369E+01
 -1       663 1.59532E+01
 -1       664 9.39675E+00
 -1       665 1.10238E+01
 -1       666 1.50760E+01
 -1       667 1.13606E+01
 -1       668 9.91879E+00
 -1       669 1.10983E+01
 -1       670 1.36123E+01
 -1       671 1.50434E+01
 -1       672 1.53031E+01
 -1       673 1.11796E+01
 -1       674 1.02006E+01
 -1       675 1.55742E+01
 -1       676 9.48826E+00
 -1       677 9.89277E+00
 -1       678 1.08757E+01
 -1       679 1.02562E+01
 -1       680 1.07359E+01
 -1       681 1.08365E+01
 -1       682 9.89404E+00
 -1       683 9.46191E+00
 -1       684 1.12898E+01
 -1       685 1.04245E+01
 -1       686 1.00205E+01
 -1       687 1.06220E+01
 -1       688 1.08647E+01
 -1       689 1.05815E+01
 -1       690 1.09054E+01
 -1       691 9.97968E+00
 -1       692 1.11387E+01
 -1       693 1.13364E+01
 -1       694 1.06474E+01
 -1       695 9.97968E+00
 -1       696 1.16104E+01
 -1       697 1.20231E+01
 -1       698 1.24717E+01
 -1       699 1.34347E+01
 -1       700 1.05496E+01
 -1       701 1.03439E+01
 -1       702 1.35798E+01
 -1       703 1.04372E+01
 -1       704 1.00480E+01
 -1       705 1.13990E+01
 -1       706 1.25288E+01
 -1       707 1.10880E+01
 -1       708 1.08917E+01
 -1       709 1.18894E+01
 -1       710 1.05773E+01
 -1       711 1.21080E+01
 -1       712 1.24588E+01
 -1       713 1.21690E+01
 -1       714 1.18783E+01
 -1       715 1.22054E+01
 -1       716 1.47222E+01
 -1       717 1.33689E+01
 -1       718 1.51104E+01
 -1       719 9.89219E+00
 -1       720 1.11650E+01
 -1       721 1.44777E+01
 -1       722 1.19082E+01
 -1       723 1.06112E+01
 -1       724 1.17442E+01
 -1       725 1.00921E+01
 -1       726 1.16613E+01
 -1       727 1.19684E+01
 -1       728 1.62015E+01
 -1       729 1.45583E+01
 -1       730 1.59895E+01
 -1       731 1.07800E+01
 -1       732 1.08297E+01
 -1       733 1.67515E+01
 -1       734 9.52231E+00
 -1       735 1.04157E+01
 -1       736 1.16658E+01
 -1       737 1.12223E+01
 -1       738 1.18195E+01
 -1       739 1.11650E+01
 -1       740 1.59128E+01
 -1       741 1.42346E+01
 -1       742 1.60648E+01
 -1       743 1.04997E+01
 -1       744 1.16270E+01
 -1       745 1.64232E+01
 -1       746 1.01714E+01
 -1       747 9.94554E+00
 -1       748 1.12328E+01
 -1       749 1.14655E+01
 -1       750 1.05710E+01
 -1       751 1.12971E+01
 -1       752 9.36191E+00
 -1       753 1.02658E+01
 -1       754 1.16080E+01
 -1       755 1.08712E+01
 -1       756 1.14121E+01
 -1       757 1.10043E+01
 -1       758 1.11322E+01
 -1       759 1.03244E+01
 -1       760 1.13298E+01
 -1       761 9.38707E+00
 -1       762 8.81704E+00
 -1       763 1.01125E+01
 -1       764 1.23195E+01
 -1       765 1.32717E+01
 -1       766 1.26776E+01
 -1       767 1.09836E+01
 -1       768 1.14124E+01
 -1       769 1.38919E+01
 -1       770 1.10618E+01
 -1       771 1.04673E+01
 -1       772 1.12532E+01
 -1       773 9.75227E+00
 -1       774 8.98561E+00
 -1       775 1.01875E+01
 -1       776 9.82822E+00
 -1       777 1.08469E+01
 -1       778 1.03151E+01
 -1       779 1.41680E+01
 -1       780 1.29084E+01
 -1       781 1.44788E+01
 -1       782 1.00914E+01
 -1       783 1.03298E+01
 -1       784 1.49829E+01
 -1       785 9.48989E+00
 -1       786 1.02594E+01
 -1       787 1.13260E+01
 -1       788 1.21705E+01
 -1       789 1.13687E+01
 -1       790 1.23972E+01
 -1       791 1.00144E+01
 -1       792 1.05189E+01
 -1       793 1.29539E+01
 -1       794 1.06838E+01
 -1       795 9.85869E+00
 -1       796 1.17645E+01
 -1       797 9.85869E+00
 -1       798 9.47569E+00
 -1       799 1.19294E+01
 -1       800 8.96972E+00
 -1       801 1.04757E+01
 -1       802 1.14234E+01
 -1       803 1.94347E+01
 -1       804 1.23773E+01
 -1       805 1.11297E+01
 -1       806 1.08126E+01
 -1       807 1.20994E+01
 -1       808 1.23535E+01
 -1       809 1.46816E+01
 -1       810 1.45246E+01
 -1       811 1.41796E+01
 -1       812 1.39056E+01
 -1       813 1.75247E+01
 -1       814 1.35942E+01
 -1       815 1.35942E+01
 -1       816 1.19354E+01
 -1       817 1.36002E+01
 -1       818 1.14295E+01
 -1       819 1.42133E+01
 -1       820 1.36913E+01
 -1       821 1.45549E+01
 -1       822 1.90547E+01
 -1       823 1.76700E+01
 -1       824 1.78166E+01
 -1       825 1.55285E+01
 -1       826 1.51296E+01
 -1       827 1.47789E+01
 -1       828 1.90542E+01
 -1       829 1.14557E+01
 -1       830 1.47768E+01
 -1       831 1.82309E+01
 -1       832 1.54139E+01
 -1       833 1.52078E+01
 -1       834 1.37257E+01
 -1       835 1.38906E+01
 -1       836 1.43962E+01
 -1       837 1.30418E+01
 -1       838 1.51679E+01
 -1       839 1.51406E+01
 -1       840 1.57460E+01
 -1       841 1.58737E+01
 -1       842 1.55938E+01
 -1       843 2.00100E+01
 -1       844 1.52622E+01
 -1       845 1.46628E+01
 -1       846 1.65803E+01
 -1       847 1.94108E+01
 -1       848 2.07287E+01
 -1       849 2.07432E+01
 -1       850 1.69173E+01
 -1       851 1.67294E+01
 -1       852 2.06234E+01
 -1       853 2.07061E+01
 -1       854 1.66801E+01
 -1       855 1.67412E+01
 -1       856 2.07719E+01
 -1       857 1.62972E+01
 -1       858 1.91411E+01
 -1       859 2.04275E+01
 -1       860 1.68520E+01
 -1       861 1.33372E+01
 -1       862 1.19865E+01
 -1       863 1.70954E+01
 -1       864 1.16877E+01
 -1       865 1.22326E+01
 -1       866 1.18822E+01
 -1       867 1.30920E+01
 -1       868 1.25214E+01
 -1       869 1.60540E+01
 -1       870 2.04441E+01
 -1       871 1.18016E+01
 -1       872 1.25115E+01
 -1       873 1.67534E+01
 -1       874 1.70777E+01
 -1       875 1.67632E+01
 -1       876 1.71895E+01
 -1       877 2.14939E+01
 -1       878 1.22219E+01
 -1       879 1.66382E+01
 -1       880 2.10572E+01
 -1       881 1.70977E+01
 -1       882 1.71808E+01
 -1       883 2.12991E+01
 -1       884 1.74838E+01
 -1       885 1.14194E+01
 -1       886 1.19210E+01
 -1       887 1.09075E+01
 -1       888 1.14295E+01
 -1       889 2.01432E+01
 -1       890 2.01532E+01
 -1       891 1.61065E+01
 -1       892 1.98183E+01
 -1       893 1.63084E+01
 -1       894 1.23093E+01
 -1       895 1.63723E+01
 -1       896 1.35798E+01
 -1       897 1.52590E+01
 -1       898 1.55554E+01
 -1       899 1.37311E+01
 -1       900 1.55554E+01
 -1       901 1.65028E+01
 -1       902 1.59837E+01
 -1       903 1.58649E+01
 -1       904 1.66081E+01
 -1       905 2.06235E+01
 -1       906 1.62909E+01
 -1       907 2.03841E+01
 -1       908 2.00207E+01
 -1       909 1.62858E+01
 -1       910 2.02468E+01
 -1       911 1.28397E+01
 -1       912 1.16306E+01
 -1       913 1.30517E+01
 -1       914 1.30744E+01
 -1       915 1.15318E+01
 -1       916 2.04128E+01
 -1       917 1.66345E+01
 -1       918 1.61717E+01
 -1       919 2.07119E+01
 -1       920 2.05949E+01
 -1       921 1.19695E+01
 -1       922 1.27761E+01
 -1       923 1.30921E+01
 -1       924 1.17847E+01
 -1       925 1.33958E+01
 -1       926 1.64312E+01
 -1       927 1.24211E+01
 -1       928 1.75955E+01
 -1       929 1.94415E+01
 -1       930 1.94415E+01
 -1       931 1.09175E+01
 -1       932 1.10715E+01
 -1       933 1.19141E+01
 -1       934 1.14695E+01
 -1       935 1.07544E+01
 -1       936 1.52334E+01
 -1       937 1.43934E+01
 -1       938 1.36174E+01
 -1       939 1.55285E+01
 -1       940 1.29908E+01
 -1       941 1.64932E+01
 -1       942 1.47917E+01
 -1       943 1.38544E+01
 -1       944 1.92196E+01
 -1       945 1.55367E+01
 -1       946 1.54089E+01
 -1       947 1.88206E+01
 -1       948 1.11246E+01
 -1       949 1.19189E+01
 -1       950 1.47052E+01
 -1       951 1.45787E+01
 -1       952 1.57804E+01
 -1       953 2.06131E+01
 -1       954 1.92103E+01
 -1       955 1.45468E+01
 -1       956 1.80235E+01
 -1       957 1.22122E+01
 -1       958 1.98567E+01
 -1       959 1.62342E+01
 -1       960 1.81298E+01
 -1       961 1.57255E+01
 -1       962 2.00641E+01
 -1       963 1.63904E+01
 -1       964 1.27929E+01
 -1       965 1.13373E+01
 -1       966 1.84813E+01
 -1       967 1.30473E+01
 -1       968 1.30473E+01
 -1       969 1.56164E+01
 -1       970 1.93356E+01
 -1       971 1.53459E+01
 -1       972 1.07037E+01
 -1       973 1.81134E+01
 -1       974 1.03575E+01
 -1       975 1.21423E+01
 -1       976 1.10601E+01
 -1       977 1.87174E+01
 -1       978 1.30434E+01
 -1       979 1.19585E+01
 -1       980 1.10356E+01
 -1       981 1.06612E+01
 -1       982 1.08781E+01
 -1       983 1.08474E+01
 -1       984 1.86380E+01
 -1       985 1.16084E+01
 -1       986 1.12117E+01
 -1       987 9.73909E+00
 -1       988 1.27835E+01
 -1       989 1.24190E+01
 -1       990 9.77771E+00
 -1       991 1.25081E+01
 -1       992 1.12366E+01
 -1       993 1.14220E+01
 -1       994 1.20899E+01
 -1       995 1.85206E+01
 -1       996 1.88734E+01
 -1       997 1.10212E+01
 -1       998 1.86701E+01
 -1       999 9.33423E+00
 -1      1000 9.67269E+00
 -1      1001 3.35671E+01
 -1      1002 1.06929E+01
 -1      1003 1.13442E+01
 -1      1004 1.14642E+01
 -1      1005 1.17082E+01
 -1      1006 1.25081E+01
 -1      1007 1.14618E+01
 -1      1008 1.20759E+01
 -1      1009 1.08314E+01
 -1      1010 1.89968E+01
 -1      1011 1.11131E+01
 -1      1012 1.12990E+01
 -1      1013 1.91189E+01
 -1      1014 1.86412E+01
 -1      1015 1.88394E+01
 -1      1016 1.17636E+01
 -1      1017 1.94235E+01
 -1      1018 1.19238E+01
 -1      1019 1.28686E+01
 -1      1020 1.28798E+01
 -1      1021 1.18496E+01
 -1      1022 1.11399E+01
 -1      1023 1.29782E+01
 -1      1024 1.05419E+01
 -1      1025 1.14074E+01
 -1      1026 1.29782E+01
 -1      1027 9.49667E+00
 -1      1028 1.08978E+01
 -1      1029 1.22437E+01
 -1      1030 9.36727E+00
 -1      1031 1.30434E+01
 -1      1032 1.12824E+01
 -1      1033 1.09054E+01
 -1      1034 1.69757E+01
 -1      1035 1.85358E+01
 -1      1036 1.05263E+01
 -1      1037 9.96494E+00
 -1      1038 1.06527E+01
 -1      1039 1.83111E+01
 -1      1040 1.27835E+01
 -1      1041 1.09154E+01
 -1      1042 1.64450E+01
 -1      1043 1.13026E+01
 -1      1044 1.93665E+01
 -1      1045 1.80950E+01
 -1      1046 1.22072E+01
 -1      1047 1.78413E+01
 -1      1048 1.15118E+01
 -1      1049 1.95962E+01
 -1      1050 1.96027E+01
 -1      1051 1.21474E+01
 -1      1052 1.29235E+01
 -1      1053 1.96927E+01
 -1      1054 1.20667E+01
 -1      1055 1.85415E+01
 -1      1056 1.89183E+01
 -1      1057 1.90151E+01
 -1      1058 1.18105E+01
 -1      1059 1.23141E+01
 -1      1060 1.83785E+01
 -1      1061 1.22117E+01
 -1      1062 1.29680E+01
 -1      1063 1.92089E+01
 -1      1064 1.92076E+01
 -1      1065 1.85536E+01
 -1      1066 9.71661E+00
 -1      1067 1.82905E+01
 -1      1068 3.36397E+01
 -1      1069 1.06345E+01
 -1      1070 1.02130E+01
 -1      1071 1.72670E+01
 -1      1072 9.60369E+00
 -1      1073 9.57592E+00
 -1      1074 3.36397E+01
 -1      1075 3.35671E+01
 -1      1076 1.27835E+01
 -1      1077 1.05746E+01
 -1      1078 9.78431E+00
 -1      1079 8.87323E+00
 -1      1080 9.11885E+00
 -1      1081 1.05257E+01
 -1      1082 8.85130E+00
 -1      1083 3.35671E+01
 -1      1084 3.21546E+01
 -1      1085 2.63116E+01
 -1      1086 3.14436E+01
 -1      1087 3.36397E+01
 -1      1088 2.62916E+01
 -1      1089 9.72470E+00
 -1      1090 9.16723E+00
 -1      1091 9.62431E+00
 -1      1092 9.96494E+00
 -1      1093 9.87082E+00
 -1      1094 9.81881E+00
 -1      1095 9.78431E+00
 -1      1096 3.36397E+01
 -1      1097 3.28686E+01
 -1      1098 3.36397E+01
 -1      1099 3.28323E+01
 -1      1100 3.35671E+01
 -1      1101 3.36034E+01
 -1      1102 3.35671E+01
 -1      1103 9.38058E+00
 -1      1104 9.30311E+00
 -1      1105 1.01052E+01
 -1      1106 8.85541E+00
 -1      1107 9.84966E+00
 -1      1108 1.01868E+01
 -1      1109 1.06522E+01
 -1      1110 9.35509E+00
 -1      1111 1.05416E+01
 -1      1112 9.41507E+00
 -1      1113 9.46070E+00
 -1      1114 1.14042E+01
 -1      1115 9.24644E+00
 -1      1116 9.20486E+00
 -1      1117 1.12499E+01
 -1      1118 9.13595E+00
 -1      1119 1.00105E+01
 -1      1120 1.09667E+01
 -1      1121 9.89224E+00
 -1      1122 1.04725E+01
 -1      1123 1.07795E+01
 -1      1124 1.44625E+01
 -1      1125 1.31005E+01
 -1      1126 1.46512E+01
 -1      1127 9.58416E+00
 -1      1128 9.60725E+00
 -1      1129 1.51248E+01
 -1      1130 8.48666E+00
 -1      1131 9.31467E+00
 -1      1132 1.04878E+01
 -1      1133 1.00547E+01
 -1      1134 1.06471E+01
 -1      1135 1.01073E+01
 -1      1136 1.46431E+01
 -1      1137 1.32305E+01
 -1      1138 1.48434E+01
 -1      1139 9.69264E+00
 -1      1140 9.69251E+00
 -1      1141 1.53015E+01
 -1      1142 1.31297E+01
 -1      1143 1.31476E+01
 -1      1144 1.52008E+01
 -1      1145 9.75335E+00
 -1      1146 9.96645E+00
 -1      1147 1.52438E+01
 -1      1148 8.93052E+00
 -1      1149 9.62622E+00
 -1      1150 1.08136E+01
 -1      1151 1.02939E+01
 -1      1152 1.08929E+01
 -1      1153 1.04454E+01
 -1      1154 1.14582E+01
 -1      1155 1.01509E+01
 -1      1156 1.16784E+01
 -1      1157 1.01002E+01
 -1      1158 1.01558E+01
 -1      1159 1.21930E+01
 -1      1160 9.73415E+00
 -1      1161 9.70898E+00
 -1      1162 1.17206E+01
 -1      1163 9.58954E+00
 -1      1164 1.03273E+01
 -1      1165 1.11795E+01
 -1      1166 1.04385E+01
 -1      1167 1.10198E+01
 -1      1168 1.11712E+01
 -1      1169 1.07305E+01
 -1      1170 1.00843E+01
 -1      1171 1.09930E+01
 -1      1172 1.04634E+01
 -1      1173 1.11554E+01
 -1      1174 1.10827E+01
 -1      1175 1.47833E+01
 -1      1176 1.37541E+01
 -1      1177 1.50896E+01
 -1      1178 1.08353E+01
 -1      1179 1.08906E+01
 -1      1180 1.57986E+01
 -1      1181 1.35073E+01
 -1      1182 1.36531E+01
 -1      1183 1.54966E+01
 -1      1184 1.10856E+01
 -1      1185 1.07458E+01
 -1      1186 1.55458E+01
 -1      1187 1.07458E+01
 -1      1188 1.14106E+01
 -1      1189 1.29782E+01
 -1      1190 1.11756E+01
 -1      1191 1.14823E+01
 -1      1192 1.27432E+01
 -1      1193 1.14823E+01
 -1      1194 1.19774E+01
 -1      1195 1.25081E+01
 -1      1196 1.21151E+01
 -1      1197 1.58635E+01
 -1      1198 1.26458E+01
 -1      1199 2.32116E+01
 -1      1200 9.59100E+00
 -1      1201 9.67723E+00
 -1      1202 1.04077E+01
 -1      1203 9.10811E+00
 -1      1204 9.33162E+00
 -1      1205 1.09523E+01
 -1      1206 1.06073E+01
 -1      1207 9.20069E+00
 -1      1208 1.07855E+01
 -1      1209 9.18403E+00
 -1      1210 1.06260E+01
 -1      1211 1.08967E+01
 -1      1212 1.04259E+01
 -1      1213 8.98948E+00
 -1      1214 1.07209E+01
 -1      1215 1.30984E+01
 -1      1216 1.44230E+01
 -1      1217 1.45235E+01
 -1      1218 9.57899E+00
 -1      1219 9.54183E+00
 -1      1220 1.49640E+01
 -1      1221 1.45835E+01
 -1      1222 1.32103E+01
 -1      1223 1.50387E+01
 -1      1224 1.00149E+01
 -1      1225 1.05194E+01
 -1      1226 1.46060E+01
 -1      1227 8.61242E+00
 -1      1228 9.41103E+00
 -1      1229 9.93807E+00
 -1      1230 9.82696E+00
 -1      1231 9.90721E+00
 -1      1232 1.06290E+01
 -1      1233 1.47662E+01
 -1      1234 1.33018E+01
 -1      1235 1.53986E+01
 -1      1236 9.20798E+00
 -1      1237 1.06558E+01
 -1      1238 1.47630E+01
 -1      1239 9.56170E+00
 -1      1240 8.73996E+00
 -1      1241 1.01846E+01
 -1      1242 1.08191E+01
 -1      1243 1.02140E+01
 -1      1244 1.03689E+01
 -1      1245 1.34499E+01
 -1      1246 1.48068E+01
 -1      1247 1.50090E+01
 -1      1248 1.00892E+01
 -1      1249 9.93073E+00
 -1      1250 1.54777E+01
 -1      1251 1.36073E+01
 -1      1252 1.36693E+01
 -1      1253 1.55387E+01
 -1      1254 9.38794E+00
 -1      1255 9.46356E+00
 -1      1256 1.49751E+01
 -1      1257 1.09036E+01
 -1      1258 9.59051E+00
 -1      1259 1.10340E+01
 -1      1260 1.06511E+01
 -1      1261 1.17196E+01
 -1      1262 1.20526E+01
 -1      1263 1.11443E+01
 -1      1264 1.02617E+01
 -1      1265 1.24792E+01
 -1      1266 9.45732E+00
 -1      1267 9.84774E+00
 -1      1268 1.07933E+01
 -1      1269 1.05617E+01
 -1      1270 1.09185E+01
 -1      1271 1.09578E+01
 -1      1272 1.02810E+01
 -1      1273 9.80492E+00
 -1      1274 1.16622E+01
 -1      1275 1.10497E+01
 -1      1276 1.05393E+01
 -1      1277 1.11637E+01
 -1      1278 1.18276E+01
 -1      1279 1.13766E+01
 -1      1280 1.17490E+01
 -1      1281 1.11544E+01
 -1      1282 1.23113E+01
 -1      1283 1.25597E+01
 -1      1284 1.19515E+01
 -1      1285 1.11544E+01
 -1      1286 1.30434E+01
 -1      1287 1.07987E+01
 -1      1288 1.09997E+01
 -1      1289 1.20916E+01
 -1      1290 1.03575E+01
 -1      1291 1.04075E+01
 -1      1292 1.07487E+01
 -1      1293 1.46346E+01
 -1      1294 1.02852E+01
 -1      1295 1.02852E+01
 -1      1296 2.18900E+01
 -1      1297 1.18358E+01
 -1      1298 1.22149E+01
 -1      1299 1.17149E+01
 -1      1300 1.14255E+01
 -1      1301 1.25577E+01
 -1      1302 1.61231E+01
 -1      1303 1.87399E+01
 -1      1304 1.81042E+01
 -1      1305 1.55366E+01
 -1      1306 1.87307E+01
 -1      1307 1.34012E+01
 -1      1308 1.37925E+01
 -1      1309 1.46142E+01
 -1      1310 1.15705E+01
 -1      1311 1.14982E+01
 -1      1312 1.21770E+01
 -1      1313 1.17553E+01
 -1      1314 1.56294E+01
 -1      1315 1.55787E+01
 -1      1316 1.56134E+01
 -1      1317 1.14054E+01
 -1      1318 1.12859E+01
 -1      1319 1.53314E+01
 -1      1320 1.54425E+01
 -1      1321 1.55572E+01
 -1      1322 1.18345E+01
 -1      1323 1.54623E+01
 -1      1324 1.92051E+01
 -1      1325 1.62863E+01
 -1      1326 1.59500E+01
 -1      1327 1.44906E+01
 -1      1328 1.54424E+01
 -1      1329 1.29834E+01
 -1      1330 1.29834E+01
 -1      1331 1.53824E+01
 -1      1332 1.55831E+01
 -1      1333 1.91022E+01
 -1      1334 1.93575E+01
 -1      1335 1.57773E+01
 -1      1336 1.94019E+01
 -1      1337 1.15862E+01
 -1      1338 1.13719E+01
 -1      1339 1.15054E+01
 -1      1340 1.11691E+01
 -1      1341 1.11002E+01
 -1      1342 1.47898E+01
 -1      1343 1.87797E+01
 -1      1344 1.47197E+01
 -1      1345 1.46014E+01
 -1      1346 1.87299E+01
 -1      1347 1.47070E+01
 -1      1348 1.46144E+01
 -1      1349 1.45843E+01
 -1      1350 1.84132E+01
 -1      1351 1.46029E+01
 -1      1352 1.50281E+01
 -1      1353 1.90242E+01
 -1      1354 1.08407E+01
 -1      1355 1.15807E+01
 -1      1356 1.57615E+01
 -1      1357 1.55936E+01
 -1      1358 1.90308E+01
 -1      1359 1.88673E+01
 -1      1360 1.84746E+01
 -1      1361 1.50803E+01
 -1      1362 1.85098E+01
 -1      1363 1.49935E+01
 -1      1364 1.17095E+01
 -1      1365 1.05889E+01
 -1      1366 1.50945E+01
 -1      1367 1.38343E+01
 -1      1368 1.40937E+01
 -1      1369 1.71213E+01
 -1      1370 1.42393E+01
 -1      1371 1.36160E+01
 -1      1372 1.05883E+01
 -1      1373 1.41375E+01
 -1      1374 1.49400E+01
 -1      1375 1.77558E+01
 -1      1376 1.33574E+01
 -1      1377 1.38051E+01
 -1      1378 1.26458E+01
 -1      1379 1.27835E+01
 -1      1380 1.27835E+01
 -1      1381 1.27835E+01
 -1      1382 2.32116E+01
 -1      1383 2.32116E+01
 -1      1384 1.26935E+01
 -1      1385 1.12323E+01
 -1      1386 1.15563E+01
 -1      1387 1.23131E+01
 -1      1388 1.25876E+01
 -1      1389 1.44927E+01
 -1      1390 1.51604E+01
 -1      1391 1.19581E+01
 -1      1392 1.09222E+01
 -1      1393 1.56372E+01
 -1      1394 1.44766E+01
 -1      1395 1.44766E+01
 -1      1396 1.54098E+01
 -1      1397 1.51747E+01
 -1      1398 1.71432E+01
 -1      1399 1.17241E+01
 -1      1400 1.15215E+01
 -1      1401 1.21902E+01
 -1      1402 1.13742E+01
 -1      1403 1.18617E+01
 -1      1404 1.57212E+01
 -1      1405 1.53942E+01
 -1      1406 1.55574E+01
 -1      1407 1.52991E+01
 -1      1408 1.95296E+01
 -1      1409 1.58463E+01
 -1      1410 1.62356E+01
 -1      1411 1.08220E+01
 -1      1412 1.21186E+01
 -1      1413 1.58751E+01
 -1      1414 1.49744E+01
 -1      1415 1.85310E+01
 -1      1416 1.49116E+01
 -1      1417 1.09144E+01
 -1      1418 1.49220E+01
 -1      1419 1.90412E+01
 -1      1420 1.55664E+01
 -1      1421 1.46031E+01
 -1      1422 1.87135E+01
 -1      1423 1.88813E+01
 -1      1424 1.55317E+01
 -1      1425 1.15440E+01
 -1      1426 1.51889E+01
 -1      1427 1.46662E+01
 -1      1428 1.40139E+01
 -1      1429 1.44602E+01
 -1      1430 1.85243E+01
 -1      1431 1.87942E+01
 -1      1432 1.51628E+01
 -1      1433 1.86484E+01
 -1      1434 1.21189E+01
 -1      1435 1.08242E+01
 -1      1436 1.05724E+01
 -1      1437 1.11762E+01
 -1      1438 1.20623E+01
 -1      1439 1.34698E+01
 -1      1440 1.39507E+01
 -1      1441 1.01536E+01
 -1      1442 2.31753E+01
 -1      1443 2.18900E+01
 -1      1444 1.14982E+01
 -1      1445 1.48173E+01
 -1      1446 1.48773E+01
 -1      1447 1.49994E+01
 -1      1448 1.13118E+01
 -1      1449 1.11173E+01
 -1      1450 1.55692E+01
 -1      1451 1.50855E+01
 -1      1452 1.49233E+01
 -1      1453 1.90670E+01
 -1      1454 1.53546E+01
 -1      1455 1.59199E+01
 -1      1456 1.93057E+01
 -1      1457 1.86965E+01
 -1      1458 1.51586E+01
 -1      1459 1.89886E+01
 -1      1460 1.50381E+01
 -1      1461 1.45701E+01
 -1      1462 1.29509E+01
 -1      1463 1.29509E+01
 -1      1464 1.55092E+01
 -1      1465 1.61457E+01
 -1      1466 1.35141E+01
 -1      1467 1.33875E+01
 -1      1468 1.19006E+01
 -1      1469 1.71678E+01
 -1      1470 1.59248E+01
 -1      1471 1.80654E+01
 -1      1472 1.80522E+01
 -1      1473 2.00641E+01
 -1      1474 2.11547E+01
 -1      1475 1.77805E+01
 -1      1476 1.82951E+01
 -1      1477 1.94524E+01
 -1      1478 1.78310E+01
 -1      1479 1.67527E+01
 -1      1480 1.16104E+01
 -1      1481 1.14467E+01
 -1      1482 1.74181E+01
 -1      1483 1.16005E+01
 -1      1484 1.75090E+01
 -1      1485 1.99153E+01
 -1      1486 1.83391E+01
 -1      1487 1.81235E+01
 -1      1488 3.02409E+01
 -1      1489 9.73830E+00
 -1      1490 1.47256E+01
 -1      1491 1.51088E+01
 -1      1492 1.98315E+01
 -1      1493 1.79121E+01
 -1      1494 1.82086E+01
 -1      1495 2.51950E+01
 -1      1496 1.25081E+01
 -1      1497 1.76280E+01
 -1      1498 1.69117E+01
 -1      1499 2.79065E+01
 -1      1500 1.26002E+01
 -1      1501 1.61736E+01
 -1      1502 1.91087E+01
 -1      1503 1.84174E+01
 -1      1504 2.97125E+01
 -1      1505 1.22263E+01
 -1      1506 1.95686E+01
 -1      1507 1.57739E+01
 -1      1508 1.83057E+01
 -1      1509 2.06269E+01
 -1      1510 1.89314E+01
 -1      1511 3.02568E+01
 -1      1512 1.07165E+01
 -1      1513 1.76293E+01
 -1      1514 2.10113E+01
 -1      1515 2.62091E+01
 -1      1516 1.80084E+01
 -1      1517 1.99907E+01
 -1      1518 1.87536E+01
 -1      1519 1.41870E+01
 -1      1520 1.52854E+01
 -1      1521 1.85220E+01
 -1      1522 1.18810E+01
 -1      1523 1.66373E+01
 -1      1524 1.68122E+01
 -1      1525 2.48093E+01
 -1      1526 2.06129E+01
 -1      1527 3.02270E+01
 -1      1528 1.76359E+01
 -1      1529 1.74639E+01
 -1      1530 1.78383E+01
 -1      1531 1.74850E+01
 -1      1532 1.81946E+01
 -1      1533 3.04990E+01
 -1      1534 1.81672E+01
 -1      1535 3.01080E+01
 -1      1536 1.16727E+01
 -1      1537 1.41094E+01
 -1      1538 2.45830E+01
 -1      1539 2.45830E+01
 -1      1540 2.67816E+01
 -1      1541 1.67235E+01
 -1      1542 2.00929E+01
 -1      1543 2.50902E+01
 -1      1544 2.51944E+01
 -1      1545 3.03942E+01
 -1      1546 2.49963E+01
 -1      1547 2.15663E+01
 -1      1548 2.67816E+01
 -1      1549 3.05171E+01
 -1      1550 1.84116E+01
 -1      1551 2.55365E+01
 -1      1552 2.61066E+01
 -1      1553 2.86512E+01
 -1      1554 2.75772E+01
 -1      1555 1.99359E+01
 -1      1556 2.97125E+01
 -1      1557 2.63156E+01
 -1      1558 1.75093E+01
 -1      1559 3.05636E+01
 -1      1560 2.53700E+01
 -1      1561 9.52194E+00
 -1      1562 2.02819E+01
 -1      1563 9.20725E+00
 -1      1564 3.02409E+01
 -1      1565 1.27117E+01
 -1      1566 1.21143E+01
 -1      1567 2.69755E+01
 -1      1568 1.71336E+01
 -1      1569 8.47448E+00
 -1      1570 1.45858E+01
 -1      1571 1.21143E+01
 -1      1572 1.07633E+01
 -1      1573 1.20936E+01
 -1      1574 1.39129E+01
 -1      1575 1.04192E+01
 -1      1576 1.71336E+01
 -1      1577 1.71336E+01
 -1      1578 1.35553E+01
 -1      1579 1.96765E+01
 -1      1580 2.81116E+01
 -1      1581 2.29595E+01
 -1      1582 3.02340E+01
 -1      1583 2.36491E+01
 -1      1584 2.11776E+01
 -1      1585 2.26706E+01
 -1      1586 3.02270E+01
 -1      1587 3.02340E+01
 -1      1588 2.14694E+01
 -1      1589 1.34359E+01
 -1      1590 9.46270E+00
 -1      1591 1.34359E+01
 -1      1592 9.35452E+00
 -1      1593 1.09497E+01
 -1      1594 9.63012E+00
 -1      1595 1.82487E+01
 -1      1596 1.48471E+01
 -1      1597 1.46455E+01
 -1      1598 1.61981E+01
 -1      1599 1.48111E+01
 -1      1600 1.46017E+01
 -1      1601 2.04474E+01
 -1      1602 1.48726E+01
 -1      1603 1.66695E+01
 -1      1604 2.08838E+01
 -1      1605 1.60875E+01
 -1      1606 1.43306E+01
 -1      1607 2.05727E+01
 -1      1608 1.42510E+01
 -1      1609 1.59254E+01
 -1      1610 1.99111E+01
 -1      1611 1.65153E+01
 -1      1612 1.48395E+01
 -1      1613 2.04214E+01
 -1      1614 1.43659E+01
 -1      1615 1.43423E+01
 -1      1616 2.05377E+01
 -1      1617 1.46237E+01
 -1      1618 1.62650E+01
 -1      1619 2.03455E+01
 -1      1620 1.56778E+01
 -1      1621 1.50850E+01
 -1      1622 2.00397E+01
 -1      1623 1.48245E+01
 -1      1624 1.37420E+01
 -1      1625 1.91919E+01
 -1      1626 1.40605E+01
 -1      1627 1.40973E+01
 -1      1628 1.92500E+01
 -1      1629 1.42706E+01
 -1      1630 1.58181E+01
 -1      1631 1.97419E+01
 -1      1632 1.52372E+01
 -1      1633 1.35887E+01
 -1      1634 1.93344E+01
 -1      1635 1.33595E+01
 -1      1636 1.42750E+01
 -1      1637 1.85243E+01
 -1      1638 1.43361E+01
 -1      1639 1.49063E+01
 -1      1640 1.83562E+01
 -1      1641 1.52520E+01
 -1      1642 1.38218E+01
 -1      1643 1.87630E+01
 -1      1644 1.33002E+01
 -1      1645 1.32817E+01
 -1      1646 1.85871E+01
 -1      1647 1.35100E+01
 -1      1648 1.49967E+01
 -1      1649 1.82937E+01
 -1      1650 1.43196E+01
 -1      1651 1.26925E+01
 -1      1652 1.78449E+01
 -1      1653 1.25645E+01
 -1      1654 1.40063E+01
 -1      1655 1.70398E+01
 -1      1656 1.43644E+01
 -1      1657 1.29333E+01
 -1      1658 1.72699E+01
 -1      1659 1.21922E+01
 -1      1660 1.31712E+01
 -1      1661 1.68868E+01
 -1      1662 1.27410E+01
 -1      1663 1.23365E+01
 -1      1664 1.57155E+01
 -1      1665 1.22482E+01
 -1      1666 1.17686E+01
 -1      1667 1.51971E+01
 -1      1668 1.13077E+01
 -1      1669 1.17398E+01
 -1      1670 1.46479E+01
 -1      1671 1.14033E+01
 -1      1672 1.18073E+01
 -1      1673 1.38505E+01
 -1      1674 1.13504E+01
 -1      1675 1.16336E+01
 -1      1676 1.30572E+01
 -1      1677 1.12740E+01
 -1      1678 1.01150E+01
 -1      1679 1.22406E+01
 -1      1680 9.97968E+00
 -1      1681 1.06474E+01
 -1      1682 1.17457E+01
 -1      1683 1.02004E+01
 -1      1684 9.75183E+00
 -1      1685 1.11634E+01
 -1      1686 1.03439E+01
 -1      1687 1.05496E+01
 -1      1688 1.13085E+01
 -1      1689 9.20294E+00
 -1      1690 9.59213E+00
 -1      1691 1.05539E+01
 -1      1692 1.31704E+01
 -1      1693 1.29014E+01
 -1      1694 1.29789E+01
 -1      1695 1.52714E+01
 -1      1696 1.40844E+01
 -1      1697 1.30901E+01
 -1      1698 1.80198E+01
 -1      1699 1.26390E+01
 -1      1700 1.39361E+01
 -1      1701 1.80603E+01
 -1      1702 1.27328E+01
 -1      1703 1.26872E+01
 -1      1704 1.79603E+01
 -1      1705 1.27131E+01
 -1      1706 1.27547E+01
 -1      1707 1.80303E+01
 -1      1708 1.33041E+01
 -1      1709 1.24296E+01
 -1      1710 1.77686E+01
 -1      1711 1.40610E+01
 -1      1712 1.34808E+01
 -1      1713 1.76616E+01
 -1      1714 1.29495E+01
 -1      1715 1.43115E+01
 -1      1716 1.80887E+01
 -1      1717 1.29003E+01
 -1      1718 1.28772E+01
 -1      1719 1.82668E+01
 -1      1720 1.33857E+01
 -1      1721 1.25577E+01
 -1      1722 1.78519E+01
 -1      1723 1.41137E+01
 -1      1724 1.35213E+01
 -1      1725 1.76449E+01
 -1      1726 1.29637E+01
 -1      1727 1.43762E+01
 -1      1728 1.80431E+01
 -1      1729 1.28725E+01
 -1      1730 1.28726E+01
 -1      1731 1.82146E+01
 -1      1732 1.37965E+01
 -1      1733 1.37787E+01
 -1      1734 1.90297E+01
 -1      1735 1.31253E+01
 -1      1736 1.29122E+01
 -1      1737 1.90516E+01
 -1      1738 1.34464E+01
 -1      1739 1.27507E+01
 -1      1740 1.77926E+01
 -1      1741 1.41511E+01
 -1      1742 1.35520E+01
 -1      1743 1.75237E+01
 -1      1744 1.27836E+01
 -1      1745 1.40909E+01
 -1      1746 1.75691E+01
 -1      1747 1.29026E+01
 -1      1748 1.28470E+01
 -1      1749 1.75725E+01
 -1      1750 1.27914E+01
 -1      1751 1.28166E+01
 -1      1752 1.75499E+01
 -1      1753 1.31736E+01
 -1      1754 1.24358E+01
 -1      1755 1.71083E+01
 -1      1756 1.37847E+01
 -1      1757 1.32034E+01
 -1      1758 1.67824E+01
 -1      1759 1.28193E+01
 -1      1760 1.34655E+01
 -1      1761 1.64929E+01
 -1      1762 1.33869E+01
 -1      1763 1.26949E+01
 -1      1764 1.60492E+01
 -1      1765 1.27140E+01
 -1      1766 1.37432E+01
 -1      1767 1.62810E+01
 -1      1768 1.18134E+01
 -1      1769 1.17582E+01
 -1      1770 1.56814E+01
 -1      1771 1.24834E+01
 -1      1772 1.23376E+01
 -1      1773 1.52497E+01
 -1      1774 1.09505E+01
 -1      1775 1.12902E+01
 -1      1776 1.45807E+01
 -1      1777 1.10347E+01
 -1      1778 1.03699E+01
 -1      1779 1.28069E+01
 -1      1780 1.10285E+01
 -1      1781 1.07217E+01
 -1      1782 1.19134E+01
 -1      1783 1.19774E+01
 -1      1784 1.14823E+01
 -1      1785 1.20543E+01
 -1      1786 1.51951E+01
 -1      1787 1.14467E+01
 -1      1788 1.19774E+01
 -1      1789 1.92111E+01
 -1      1790 2.14112E+01
 -1      1791 2.06700E+01
 -1      1792 2.14636E+01
 -1      1793 2.10335E+01
 -1      1794 2.59880E+01
 -1      1795 1.75402E+01
 -1      1796 1.70833E+01
 -1      1797 1.93850E+01
 -1      1798 1.90486E+01
 -1      1799 2.30747E+01
 -1      1800 1.53190E+01
 -1      1801 1.58995E+01
 -1      1802 1.67402E+01
 -1      1803 1.79334E+01
 -1      1804 1.92522E+01
 -1      1805 1.24129E+01
 -1      1806 1.30050E+01
 -1      1807 1.17866E+01
 -1      1808 1.28911E+01
 -1      1809 1.04400E+01
 -1      1810 2.25372E+01
 -1      1811 2.24091E+01
 -1      1812 2.29095E+01
 -1      1813 2.82789E+01
 -1      1814 2.35866E+01
 -1      1815 2.13532E+01
 -1      1816 2.14776E+01
 -1      1817 2.06102E+01
 -1      1818 2.02539E+01
 -1      1819 2.56823E+01
 -1      1820 2.26076E+01
 -1      1821 2.20860E+01
 -1      1822 2.15778E+01
 -1      1823 2.18061E+01
 -1      1824 2.55984E+01
 -1      1825 2.42232E+01
 -1      1826 2.42013E+01
 -1      1827 2.19003E+01
 -1      1828 2.21839E+01
 -1      1829 2.83549E+01
 -1      1830 2.27170E+01
 -1      1831 2.29984E+01
 -1      1832 2.36102E+01
 -1      1833 2.31366E+01
 -1      1834 2.57895E+01
 -1      1835 2.30755E+01
 -1      1836 2.24935E+01
 -1      1837 2.29820E+01
 -1      1838 2.27111E+01
 -1      1839 2.49028E+01
 -1      1840 2.19211E+01
 -1      1841 2.16585E+01
 -1      1842 2.39443E+01
 -1      1843 2.78223E+01
 -1      1844 2.38087E+01
 -1      1845 2.40038E+01
 -1      1846 2.40649E+01
 -1      1847 2.43971E+01
 -1      1848 3.01058E+01
 -1      1849 2.46263E+01
 -1      1850 2.55953E+01
 -1      1851 2.50080E+01
 -1      1852 2.48546E+01
 -1      1853 2.45941E+01
 -1      1854 3.04102E+01
 -1      1855 2.17018E+01
 -1      1856 2.15130E+01
 -1      1857 2.77180E+01
 -1      1858 2.40360E+01
 -1      1859 2.40290E+01
 -1      1860 3.02340E+01
 -1      1861 2.10033E+01
 -1      1862 2.09735E+01
 -1      1863 2.21649E+01
 -1      1864 2.25205E+01
 -1      1865 2.63858E+01
 -1      1866 1.41670E+01
 -1      1867 1.37200E+01
 -1      1868 1.51463E+01
 -1      1869 1.50110E+01
 -1      1870 1.75676E+01
 -1      1871 1.15597E+01
 -1      1872 1.20904E+01
 -1      1873 9.96060E+00
 -1      1874 1.00736E+01
 -1      1875 1.04843E+01
 -1      1876 8.99821E+00
 -1      1877 2.18680E+01
 -1      1878 2.17624E+01
 -1      1879 2.35653E+01
 -1      1880 2.39398E+01
 -1      1881 2.79095E+01
 -1      1882 1.33088E+01
 -1      1883 1.28549E+01
 -1      1884 1.41620E+01
 -1      1885 1.44749E+01
 -1      1886 1.54165E+01
 -1      1887 2.12996E+01
 -1      1888 2.13598E+01
 -1      1889 2.31436E+01
 -1      1890 2.30801E+01
 -1      1891 2.68707E+01
 -1      1892 2.25526E+01
 -1      1893 2.27259E+01
 -1      1894 2.52162E+01
 -1      1895 2.46353E+01
 -1      1896 2.80268E+01
 -1      1897 2.18545E+01
 -1      1898 2.16041E+01
 -1      1899 2.43791E+01
 -1      1900 2.44514E+01
 -1      1901 2.79668E+01
 -1      1902 2.43203E+01
 -1      1903 2.44114E+01
 -1      1904 2.43113E+01
 -1      1905 3.05080E+01
 -1      1906 2.52175E+01
 -1      1907 3.02409E+01
 -1      1908 2.52614E+01
 -1      1909 2.52614E+01
 -1      1910 9.10639E+00
 -1      1911 9.47278E+00
 -1      1912 8.84087E+00
 -1      1913 1.86701E+01
 -1      1914 1.81460E+01
 -1      1915 1.96543E+01
 -1      1916 2.06102E+01
 -1      1917 1.98459E+01
 -1      1918 1.93850E+01
 -1      1919 2.10335E+01
 -1      1920 2.09452E+01
 -1      1921 2.30735E+01
 -1      1922 2.36634E+01
 -1      1923 2.51924E+01
 -1      1924 2.51128E+01
 -1      1925 2.13607E+01
 -1      1926 2.15089E+01
 -1      1927 2.15024E+01
 -1      1928 2.14542E+01
 -1      1929 2.50021E+01
 -1      1930 2.29040E+01
 -1      1931 2.27384E+01
 -1      1932 2.22444E+01
 -1      1933 2.26026E+01
 -1      1934 2.77418E+01
 -1      1935 2.27712E+01
 -1      1936 2.26852E+01
 -1      1937 1.63466E+01
 -1      1938 1.59869E+01
 -1      1939 2.08296E+01
 -1      1940 2.14776E+01
 -1      1941 2.17969E+01
 -1      1942 2.67816E+01
 -1      1943 2.40649E+01
 -1      1944 2.44106E+01
 -1      1945 2.97125E+01
 -1      1946 2.48242E+01
 -1      1947 2.39398E+01
 -1      1948 2.45197E+01
 -1      1949 2.48383E+01
 -1      1950 3.01824E+01
 -1      1951 2.42257E+01
 -1      1952 2.38831E+01
 -1      1953 2.62623E+01
 -1      1954 2.20237E+01
 -1      1955 2.18471E+01
 -1      1956 2.76952E+01
 -1      1957 2.45830E+01
 -1      1958 1.59504E+01
 -1      1959 1.36448E+01
 -1      1960 1.31745E+01
 -1      1961 9.52142E+00
 -1      1962 1.67956E+01
 -1      1963 1.60522E+01
 -1      1964 1.77417E+01
 -1      1965 1.78626E+01
 -1      1966 1.95231E+01
 -1      1967 1.99050E+01
 -1      1968 1.83187E+01
 -1      1969 1.77655E+01
 -1      1970 1.78834E+01
 -1      1971 1.77391E+01
 -1      1972 1.69778E+01
 -1      1973 1.15996E+01
 -1      1974 1.21774E+01
 -1      1975 1.82581E+01
 -1      1976 1.08481E+01
 -1      1977 1.80309E+01
 -1      1978 1.99096E+01
 -1      1979 1.84483E+01
 -1      1980 1.87124E+01
 -1      1981 3.04429E+01
 -1      1982 9.05090E+00
 -1      1983 1.45354E+01
 -1      1984 1.49298E+01
 -1      1985 1.82738E+01
 -1      1986 1.95425E+01
 -1      1987 1.79174E+01
 -1      1988 1.84510E+01
 -1      1989 2.51991E+01
 -1      1990 1.03575E+01
 -1      1991 1.63283E+01
 -1      1992 1.67305E+01
 -1      1993 2.83860E+01
 -1      1994 1.27291E+01
 -1      1995 1.76200E+01
 -1      1996 1.61605E+01
 -1      1997 1.30434E+01
 -1      1998 1.37504E+01
 -1      1999 1.89155E+01
 -1      2000 1.81901E+01
 -1      2001 1.81027E+01
 -1      2002 3.03538E+01
 -1      2003 2.06340E+01
 -1      2004 1.95996E+01
 -1      2005 1.19294E+01
 -1      2006 1.79774E+01
 -1      2007 1.81450E+01
 -1      2008 1.80600E+01
 -1      2009 1.94409E+01
 -1      2010 1.78080E+01
 -1      2011 1.97385E+01
 -1      2012 1.82284E+01
 -1      2013 1.56010E+01
 -1      2014 1.75332E+01
 -1      2015 1.53089E+01
 -1      2016 1.70539E+01
 -1      2017 1.19471E+01
 -1      2018 1.52153E+01
 -1      2019 1.69141E+01
 -1      2020 2.44204E+01
 -1      2021 2.01700E+01
 -1      2022 3.04429E+01
 -1      2023 1.74573E+01
 -1      2024 1.72939E+01
 -1      2025 2.98452E+01
 -1      2026 1.89250E+01
 -1      2027 9.29351E+00
 -1      2028 1.60738E+01
 -1      2029 2.46251E+01
 -1      2030 2.46251E+01
 -1      2031 2.66793E+01
 -1      2032 1.72821E+01
 -1      2033 2.19727E+01
 -1      2034 2.88462E+01
 -1      2035 2.64436E+01
 -1      2036 2.98713E+01
 -1      2037 3.05118E+01
 -1      2038 2.54838E+01
 -1      2039 3.04162E+01
 -1      2040 2.55850E+01
 -1      2041 2.21224E+01
 -1      2042 3.03993E+01
 -1      2043 2.66793E+01
 -1      2044 3.03623E+01
 -1      2045 3.01915E+01
 -1      2046 2.53125E+01
 -1      2047 1.96078E+01
 -1      2048 3.03623E+01
 -1      2049 2.98713E+01
 -1      2050 2.92470E+01
 -1      2051 2.81724E+01
 -1      2052 1.78749E+01
 -1      2053 2.54876E+01
 -1      2054 9.75439E+00
 -1      2055 2.02974E+01
 -1      2056 7.85152E+00
 -1      2057 3.03252E+01
 -1      2058 1.30969E+01
 -1      2059 1.21111E+01
 -1      2060 2.75167E+01
 -1      2061 1.71623E+01
 -1      2062 9.77998E+00
 -1      2063 1.21111E+01
 -1      2064 1.45948E+01
 -1      2065 1.07570E+01
 -1      2066 1.41642E+01
 -1      2067 1.23212E+01
 -1      2068 1.06198E+01
 -1      2069 1.71623E+01
 -1      2070 1.71623E+01
 -1      2071 1.35981E+01
 -1      2072 2.91294E+01
 -1      2073 1.99204E+01
 -1      2074 2.32864E+01
 -1      2075 2.37607E+01
 -1      2076 3.04429E+01
 -1      2077 2.12770E+01
 -1      2078 3.04429E+01
 -1      2079 2.28373E+01
 -1      2080 3.04429E+01
 -1      2081 2.17699E+01
 -1      2082 9.05090E+00
 -1      2083 1.31066E+01
 -1      2084 1.31066E+01
 -1      2085 1.10393E+01
 -1      2086 9.40264E+00
 -1      2087 9.40264E+00
 -1      2088 1.86355E+01
 -1      2089 1.46538E+01
 -1      2090 1.48501E+01
 -1      2091 1.62043E+01
 -1      2092 1.61208E+01
 -1      2093 1.45901E+01
 -1      2094 2.02337E+01
 -1      2095 1.56975E+01
 -1      2096 1.59883E+01
 -1      2097 2.00375E+01
 -1      2098 1.42610E+01
 -1      2099 1.56143E+01
 -1      2100 1.98218E+01
 -1      2101 1.54357E+01
 -1      2102 1.41629E+01
 -1      2103 1.96405E+01
 -1      2104 1.40879E+01
 -1      2105 1.53850E+01
 -1      2106 1.94917E+01
 -1      2107 1.56982E+01
 -1      2108 1.41290E+01
 -1      2109 1.94820E+01
 -1      2110 1.46104E+01
 -1      2111 1.62537E+01
 -1      2112 2.00786E+01
 -1      2113 1.41429E+01
 -1      2114 1.40932E+01
 -1      2115 2.01168E+01
 -1      2116 1.45927E+01
 -1      2117 1.36993E+01
 -1      2118 1.91560E+01
 -1      2119 1.52915E+01
 -1      2120 1.46943E+01
 -1      2121 1.88139E+01
 -1      2122 1.41103E+01
 -1      2123 1.57885E+01
 -1      2124 1.94126E+01
 -1      2125 1.47453E+01
 -1      2126 1.36180E+01
 -1      2127 1.94173E+01
 -1      2128 1.39944E+01
 -1      2129 1.42202E+01
 -1      2130 1.83999E+01
 -1      2131 1.33866E+01
 -1      2132 1.42811E+01
 -1      2133 1.81616E+01
 -1      2134 1.38763E+01
 -1      2135 1.29724E+01
 -1      2136 1.80341E+01
 -1      2137 1.44781E+01
 -1      2138 1.39372E+01
 -1      2139 1.76809E+01
 -1      2140 1.33264E+01
 -1      2141 1.41342E+01
 -1      2142 1.73978E+01
 -1      2143 1.26273E+01
 -1      2144 1.31973E+01
 -1      2145 1.69248E+01
 -1      2146 1.35469E+01
 -1      2147 1.25947E+01
 -1      2148 1.67631E+01
 -1      2149 1.37747E+01
 -1      2150 1.33458E+01
 -1      2151 1.65294E+01
 -1      2152 1.29912E+01
 -1      2153 1.35857E+01
 -1      2154 1.61393E+01
 -1      2155 1.19038E+01
 -1      2156 1.26705E+01
 -1      2157 1.56296E+01
 -1      2158 1.27329E+01
 -1      2159 1.17143E+01
 -1      2160 1.51193E+01
 -1      2161 1.18089E+01
 -1      2162 1.30686E+01
 -1      2163 1.52654E+01
 -1      2164 1.10692E+01
 -1      2165 1.08309E+01
 -1      2166 1.46229E+01
 -1      2167 1.13809E+01
 -1      2168 1.06114E+01
 -1      2169 1.31870E+01
 -1      2170 1.01881E+01
 -1      2171 1.09899E+01
 -1      2172 1.23381E+01
 -1      2173 1.05189E+01
 -1      2174 1.00144E+01
 -1      2175 1.17734E+01
 -1      2176 9.85869E+00
 -1      2177 1.06838E+01
 -1      2178 1.17645E+01
 -1      2179 8.27169E+00
 -1      2180 8.65469E+00
 -1      2181 1.07254E+01
 -1      2182 8.94269E+00
 -1      2183 7.43675E+00
 -1      2184 8.68647E+00
 -1      2185 1.25069E+01
 -1      2186 1.29409E+01
 -1      2187 1.28547E+01
 -1      2188 1.54180E+01
 -1      2189 1.32107E+01
 -1      2190 1.29872E+01
 -1      2191 1.80951E+01
 -1      2192 1.27203E+01
 -1      2193 1.41270E+01
 -1      2194 1.81842E+01
 -1      2195 1.40723E+01
 -1      2196 1.26303E+01
 -1      2197 1.78627E+01
 -1      2198 1.26576E+01
 -1      2199 1.40940E+01
 -1      2200 1.78353E+01
 -1      2201 1.42769E+01
 -1      2202 1.29524E+01
 -1      2203 1.80455E+01
 -1      2204 1.29751E+01
 -1      2205 1.30122E+01
 -1      2206 1.82511E+01
 -1      2207 1.29478E+01
 -1      2208 1.43209E+01
 -1      2209 1.82094E+01
 -1      2210 1.41901E+01
 -1      2211 1.36856E+01
 -1      2212 1.80142E+01
 -1      2213 1.35105E+01
 -1      2214 1.27119E+01
 -1      2215 1.77083E+01
 -1      2216 1.31046E+01
 -1      2217 1.30244E+01
 -1      2218 1.79259E+01
 -1      2219 1.29601E+01
 -1      2220 1.44246E+01
 -1      2221 1.82544E+01
 -1      2222 1.43808E+01
 -1      2223 1.29330E+01
 -1      2224 1.81464E+01
 -1      2225 1.27644E+01
 -1      2226 1.35862E+01
 -1      2227 1.79341E+01
 -1      2228 1.36921E+01
 -1      2229 1.42971E+01
 -1      2230 1.78715E+01
 -1      2231 1.44375E+01
 -1      2232 1.30805E+01
 -1      2233 1.81177E+01
 -1      2234 1.29815E+01
 -1      2235 1.31399E+01
 -1      2236 1.81590E+01
 -1      2237 1.31254E+01
 -1      2238 1.30633E+01
 -1      2239 1.80455E+01
 -1      2240 1.27765E+01
 -1      2241 1.27009E+01
 -1      2242 1.77441E+01
 -1      2243 1.26191E+01
 -1      2244 1.39323E+01
 -1      2245 1.73756E+01
 -1      2246 1.37742E+01
 -1      2247 1.27057E+01
 -1      2248 1.71358E+01
 -1      2249 1.26738E+01
 -1      2250 1.35564E+01
 -1      2251 1.69459E+01
 -1      2252 1.31797E+01
 -1      2253 1.27892E+01
 -1      2254 1.65373E+01
 -1      2255 1.27351E+01
 -1      2256 1.23783E+01
 -1      2257 1.61064E+01
 -1      2258 1.19598E+01
 -1      2259 1.24359E+01
 -1      2260 1.56338E+01
 -1      2261 1.20959E+01
 -1      2262 1.26064E+01
 -1      2263 1.48753E+01
 -1      2264 1.22139E+01
 -1      2265 1.26648E+01
 -1      2266 1.41429E+01
 -1      2267 1.23769E+01
 -1      2268 1.12200E+01
 -1      2269 1.34625E+01
 -1      2270 1.11544E+01
 -1      2271 1.19515E+01
 -1      2272 1.31090E+01
 -1      2273 1.08538E+01
 -1      2274 1.06528E+01
 -1      2275 1.19457E+01
 -1      2276 1.04075E+01
 -1      2277 1.03575E+01
 -1      2278 1.06028E+01
 -1      2279 1.12674E+01
 -1      2280 1.56168E+01
 -1      2281 1.12674E+01
 -1      2282 1.98470E+01
 -1      2283 2.11970E+01
 -1      2284 2.13860E+01
 -1      2285 2.09941E+01
 -1      2286 2.13148E+01
 -1      2287 2.65614E+01
 -1      2288 1.74257E+01
 -1      2289 1.78836E+01
 -1      2290 1.91349E+01
 -1      2291 2.01130E+01
 -1      2292 2.33737E+01
 -1      2293 1.63912E+01
 -1      2294 1.63256E+01
 -1      2295 1.78615E+01
 -1      2296 1.75736E+01
 -1      2297 2.07903E+01
 -1      2298 1.27976E+01
 -1      2299 1.40016E+01
 -1      2300 1.26837E+01
 -1      2301 9.40746E+00
 -1      2302 8.57252E+00
 -1      2303 2.25582E+01
 -1      2304 2.25908E+01
 -1      2305 2.88165E+01
 -1      2306 2.30213E+01
 -1      2307 2.31505E+01
 -1      2308 2.14199E+01
 -1      2309 2.13658E+01
 -1      2310 2.03386E+01
 -1      2311 1.99202E+01
 -1      2312 2.56522E+01
 -1      2313 2.38065E+01
 -1      2314 2.37457E+01
 -1      2315 2.29500E+01
 -1      2316 2.32940E+01
 -1      2317 2.93587E+01
 -1      2318 2.41121E+01
 -1      2319 2.41394E+01
 -1      2320 2.16732E+01
 -1      2321 2.18561E+01
 -1      2322 2.79500E+01
 -1      2323 2.55166E+01
 -1      2324 2.49612E+01
 -1      2325 2.50175E+01
 -1      2326 2.49764E+01
 -1      2327 3.04555E+01
 -1      2328 2.26617E+01
 -1      2329 2.27450E+01
 -1      2330 2.22952E+01
 -1      2331 2.21627E+01
 -1      2332 2.50027E+01
 -1      2333 2.43405E+01
 -1      2334 2.42762E+01
 -1      2335 2.39478E+01
 -1      2336 2.43405E+01
 -1      2337 3.03623E+01
 -1      2338 2.42282E+01
 -1      2339 2.40596E+01
 -1      2340 3.00995E+01
 -1      2341 2.38054E+01
 -1      2342 2.39113E+01
 -1      2343 2.17287E+01
 -1      2344 2.15979E+01
 -1      2345 2.40374E+01
 -1      2346 2.38624E+01
 -1      2347 2.77520E+01
 -1      2348 2.14691E+01
 -1      2349 2.18251E+01
 -1      2350 2.40322E+01
 -1      2351 2.77622E+01
 -1      2352 3.03841E+01
 -1      2353 2.40910E+01
 -1      2354 2.17107E+01
 -1      2355 2.16788E+01
 -1      2356 2.27331E+01
 -1      2357 2.25751E+01
 -1      2358 2.73080E+01
 -1      2359 1.46058E+01
 -1      2360 1.44408E+01
 -1      2361 1.56037E+01
 -1      2362 1.57775E+01
 -1      2363 1.84450E+01
 -1      2364 9.82549E+00
 -1      2365 1.07354E+01
 -1      2366 9.53675E+00
 -1      2367 1.09787E+01
 -1      2368 1.09659E+01
 -1      2369 9.76719E+00
 -1      2370 2.39244E+01
 -1      2371 2.40647E+01
 -1      2372 2.40647E+01
 -1      2373 2.39657E+01
 -1      2374 2.98713E+01
 -1      2375 1.34609E+01
 -1      2376 1.32156E+01
 -1      2377 1.51628E+01
 -1      2378 1.40651E+01
 -1      2379 1.66780E+01
 -1      2380 2.34531E+01
 -1      2381 2.34386E+01
 -1      2382 2.36390E+01
 -1      2383 2.33521E+01
 -1      2384 2.90466E+01
 -1      2385 2.51360E+01
 -1      2386 2.46389E+01
 -1      2387 2.22063E+01
 -1      2388 2.26986E+01
 -1      2389 2.79250E+01
 -1      2390 2.37457E+01
 -1      2391 2.41598E+01
 -1      2392 2.98583E+01
 -1      2393 2.41468E+01
 -1      2394 2.38600E+01
 -1      2395 2.46389E+01
 -1      2396 2.45373E+01
 -1      2397 2.44520E+01
 -1      2398 2.48956E+01
 -1      2399 3.02769E+01
 -1      2400 3.03841E+01
 -1      2401 2.53113E+01
 -1      2402 2.53702E+01
 -1      2403 9.41544E+00
 -1      2404 8.45121E+00
 -1      2405 8.81575E+00
 -1      2406 1.83289E+01
 -1      2407 1.79364E+01
 -1      2408 1.99202E+01
 -1      2409 1.95802E+01
 -1      2410 2.01130E+01
 -1      2411 1.97774E+01
 -1      2412 2.08045E+01
 -1      2413 2.09941E+01
 -1      2414 2.43366E+01
 -1      2415 2.42721E+01
 -1      2416 2.43701E+01
 -1      2417 2.43928E+01
 -1      2418 2.24624E+01
 -1      2419 2.25131E+01
 -1      2420 2.49793E+01
 -1      2421 2.50773E+01
 -1      2422 2.14357E+01
 -1      2423 2.11689E+01
 -1      2424 2.17512E+01
 -1      2425 2.16965E+01
 -1      2426 2.48098E+01
 -1      2427 2.26846E+01
 -1      2428 2.27483E+01
 -1      2429 2.22504E+01
 -1      2430 2.24514E+01
 -1      2431 2.82792E+01
 -1      2432 2.28399E+01
 -1      2433 2.29216E+01
 -1      2434 1.69599E+01
 -1      2435 1.73509E+01
 -1      2436 2.20475E+01
 -1      2437 2.17967E+01
 -1      2438 2.14199E+01
 -1      2439 2.66793E+01
 -1      2440 2.18389E+01
 -1      2441 2.17951E+01
 -1      2442 2.79207E+01
 -1      2443 2.41143E+01
 -1      2444 2.46394E+01
 -1      2445 2.24561E+01
 -1      2446 2.29732E+01
 -1      2447 2.78559E+01
 -1      2448 2.79978E+01
 -1      2449 2.80006E+01
 -1      2450 2.46251E+01
 -1      2451 3.30667E+01
 -1      2452 1.20198E+01
 -1      2453 1.78413E+01
 -1      2454 3.06656E+01
 -1      2455 3.05636E+01
 -1      2456 2.19727E+01
 -1      2457 2.44725E+01
 -1      2458 2.63871E+01
 -1      2459 2.80485E+01
 -1      2460 2.92470E+01
 -1      2461 3.05171E+01
 -1      2462 3.05118E+01
 -1      2463 2.97821E+01
 -1      2464 3.03907E+01
 -1      2465 3.04990E+01
 -1      2466 2.86031E+01
 -1      2467 2.01283E+01
 -1      2468 3.06656E+01
 -1      2469 1.08975E+01
 -1      2470 3.39387E+01
 -1      2471 1.09175E+01
 -1      2472 3.14462E+01
 -1      2473 3.05636E+01
 -1      2474 3.04131E+01
 -1      2475 2.28200E+01
 -1      2476 2.21685E+01
 -1      2477 2.64436E+01
 -1      2478 2.47558E+01
 -1      2479 2.63871E+01
 -1      2480 2.63443E+01
 -1      2481 3.05118E+01
 -1      2482 2.84508E+01
 -1      2483 2.97125E+01
 -1      2484 3.04227E+01
 -1      2485 2.89545E+01
 -1      2486 3.03907E+01
 -1      2487 3.04469E+01
 -1      2488 2.98452E+01
 -1      2489 3.03907E+01
 -1      2490 3.05171E+01
 -1      2491 3.14745E+01
 -1      2492 2.25167E+01
 -1      2493 1.85771E+01
 -1      2494 3.04376E+01
 -1      2495 3.06865E+01
 -1      2496 1.41094E+01
 -1      2497 3.14745E+01
 -1      2498 2.00929E+01
 -1      2499 3.06656E+01
 -1      2500 2.16070E+01
 -1      2501 2.86512E+01
 -1      2502 2.75772E+01
 -1      2503 3.06865E+01
 -1      2504 1.41094E+01
 -1      2505 1.37517E+01
 -1      2506 2.75772E+01
 -1      2507 2.86512E+01
 -1      2508 1.82226E+01
 -1      2509 1.82545E+01
 -1      2510 2.19727E+01
 -1      2511 2.00929E+01
 -1      2512 3.04376E+01
 -1      2513 3.06656E+01
 -1      2514 2.56841E+01
 -1      2515 2.64436E+01
 -1      2516 2.21685E+01
 -1      2517 2.22684E+01
 -1      2518 2.47558E+01
 -1      2519 2.45830E+01
 -1      2520 2.63443E+01
 -1      2521 3.05118E+01
 -1      2522 2.57843E+01
 -1      2523 2.58467E+01
 -1      2524 3.03907E+01
 -1      2525 2.62091E+01
 -1      2526 2.88462E+01
 -1      2527 3.05171E+01
 -1      2528 3.05636E+01
 -1      2529 2.64337E+01
 -1      2530 2.97125E+01
 -1      2531 2.98713E+01
 -1      2532 2.92470E+01
 -1      2533 3.04162E+01
 -1      2534 3.04667E+01
 -1      2535 3.06865E+01
 -1      2536 2.56027E+01
 -1      2537 2.83860E+01
 -1      2538 2.92470E+01
 -1      2539 1.82545E+01
 -1      2540 2.19727E+01
 -1      2541 2.83860E+01
 -1      2542 3.04667E+01
 -1      2543 3.04162E+01
 -1      2544 1.67901E+01
 -1      2545 3.01080E+01
 -1      2546 2.46251E+01
 -1      2547 2.66793E+01
 -1      2548 2.45830E+01
 -1      2549 2.51944E+01
 -1      2550 2.63156E+01
 -1      2551 3.01917E+01
 -1      2552 3.03340E+01
 -1      2553 3.03340E+01
 -1      2554 3.04227E+01
 -1      2555 3.04990E+01
 -1      2556 2.98713E+01
 -1      2557 2.63215E+01
 -1      2558 1.20198E+01
 -1      2559 2.67816E+01
 -1      2560 2.67816E+01
 -1      2561 2.66793E+01
 -1      2562 3.04227E+01
 -1      2563 2.52175E+01
 -1      2564 2.45685E+01
 -1      2565 1.92870E+01
 -1      2566 2.52265E+01
 -1      2567 2.45776E+01
 -1      2568 3.05080E+01
 -1      2569 2.41753E+01
 -1      2570 2.48242E+01
 -1      2571 3.01058E+01
 -1      2572 1.09075E+01
 -1      2573 1.14194E+01
 -1      2574 1.09175E+01
 -1      2575 1.14295E+01
 -1      2576 1.09075E+01
 -1      2577 1.12851E+01
 -1      2578 9.68597E+00
 -1      2579 1.54956E+01
 -1      2580 1.67071E+01
 -1      2581 1.70947E+01
 -1      2582 3.20898E+01
 -1      2583 3.35027E+01
 -1      2584 3.16538E+01
 -1      2585 3.08436E+01
 -1      2586 3.22564E+01
 -1      2587 3.26925E+01
 -1      2588 2.73362E+01
 -1      2589 2.77722E+01
 -1      2590 2.65401E+01
 -1      2591 3.27066E+01
 -1      2592 3.22706E+01
 -1      2593 1.69436E+01
 -1      2594 2.04667E+01
 -1      2595 1.92970E+01
 -1      2596 1.79334E+01
 -1      2597 2.14565E+01
 -1      2598 1.91031E+01
 -1      2599 2.23963E+01
 -1      2600 2.00430E+01
 -1      2601 2.10328E+01
 -1      2602 1.88733E+01
 -1      2603 2.72244E+01
 -1      2604 2.64283E+01
 -1      2605 2.91308E+01
 -1      2606 2.83206E+01
 -1      2607 1.55426E+01
 -1      2608 1.50888E+01
 -1      2609 1.20543E+01
 -1      2610 1.33088E+01
 -1      2611 1.28549E+01
 -1      2612 1.63433E+01
 -1      2613 1.82092E+01
 -1      2614 1.47209E+01
 -1      2615 1.59754E+01
 -1      2616 2.55150E+01
 -1      2617 3.05118E+01
 -1      2618 2.55150E+01
 -1      2619 2.54672E+01
 -1      2620 3.04640E+01
 -1      2621 3.04640E+01
 -1      2622 3.05118E+01
 -1      2623 3.05118E+01
 -1      2624 3.04640E+01
 -1      2625 2.14996E+01
 -1      2626 2.14518E+01
 -1      2627 2.49764E+01
 -1      2628 2.49285E+01
 -1      2629 2.76605E+01
 -1      2630 2.95669E+01
 -1      2631 2.00338E+01
 -1      2632 2.06696E+01
 -1      2633 2.10328E+01
 -1      2634 2.17695E+01
 -1      2635 1.59754E+01
 -1      2636 1.41094E+01
 -1      2637 1.72824E+01
 -1      2638 2.44514E+01
 -1      2639 3.05636E+01
 -1      2640 2.44514E+01
 -1      2641 3.05636E+01
 -1      2642 3.05636E+01
 -1      2643 2.83864E+01
 -1      2644 2.22741E+01
 -1      2645 2.83864E+01
 -1      2646 2.83605E+01
 -1      2647 2.57615E+01
 -1      2648 2.83111E+01
 -1      2649 2.57122E+01
 -1      2650 3.04625E+01
 -1      2651 2.55953E+01
 -1      2652 2.79668E+01
 -1      2653 2.55200E+01
 -1      2654 2.78916E+01
 -1      2655 3.04884E+01
 -1      2656 3.01058E+01
 -1      2657 3.04990E+01
 -1      2658 2.83864E+01
 -1      2659 3.05171E+01
 -1      2660 2.44114E+01
 -1      2661 2.44114E+01
 -1      2662 2.84754E+01
 -1      2663 2.23697E+01
 -1      2664 2.84754E+01
 -1      2665 2.79668E+01
 -1      2666 2.55953E+01
 -1      2667 3.05636E+01
 -1      2668 3.05171E+01
 -1      2669 2.84754E+01
 -1      2670 2.38845E+01
 -1      2671 2.71686E+01
 -1      2672 2.34864E+01
 -1      2673 2.67705E+01
 -1      2674 2.88489E+01
 -1      2675 2.56202E+01
 -1      2676 2.55709E+01
 -1      2677 2.54656E+01
 -1      2678 3.05171E+01
 -1      2679 3.04884E+01
 -1      2680 2.47410E+01
 -1      2681 2.46169E+01
 -1      2682 2.47151E+01
 -1      2683 2.45910E+01
 -1      2684 3.05377E+01
 -1      2685 2.43543E+01
 -1      2686 3.04814E+01
 -1      2687 2.43284E+01
 -1      2688 3.04555E+01
 -1      2689 2.44711E+01
 -1      2690 2.46024E+01
 -1      2691 2.46024E+01
 -1      2692 2.44711E+01
 -1      2693 2.05549E+01
 -1      2694 2.45278E+01
 -1      2695 2.37015E+01
 -1      2696 2.36463E+01
 -1      2697 1.97287E+01
 -1      2698 2.00367E+01
 -1      2699 2.45488E+01
 -1      2700 1.88847E+01
 -1      2701 2.33968E+01
 -1      2702 2.33205E+01
 -1      2703 2.10932E+01
 -1      2704 2.20826E+01
 -1      2705 2.15950E+01
 -1      2706 2.12564E+01
 -1      2707 2.07687E+01
 -1      2708 2.21932E+01
 -1      2709 2.15672E+01
 -1      2710 2.11362E+01
 -1      2711 1.99841E+01
 -1      2712 2.04152E+01
 -1      2713 2.35173E+01
 -1      2714 2.33519E+01
 -1      2715 2.24998E+01
 -1      2716 2.71964E+01
 -1      2717 2.26651E+01
 -1      2718 2.66215E+01
 -1      2719 2.28383E+01
 -1      2720 2.57693E+01
 -1      2721 2.19861E+01
 -1      2722 2.43701E+01
 -1      2723 2.43701E+01
 -1      2724 3.05118E+01
 -1      2725 3.05118E+01
 -1      2726 2.45162E+01
 -1      2727 2.45267E+01
 -1      2728 2.45162E+01
 -1      2729 2.45267E+01
 -1      2730 2.57288E+01
 -1      2731 2.55780E+01
 -1      2732 2.56536E+01
 -1      2733 2.55028E+01
 -1      2734 2.97125E+01
 -1      2735 2.46923E+01
 -1      2736 2.44114E+01
 -1      2737 2.42942E+01
 -1      2738 2.40133E+01
 -1      2739 2.44216E+01
 -1      2740 2.41829E+01
 -1      2741 2.42753E+01
 -1      2742 2.40367E+01
 -1      2743 2.91007E+01
 -1      2744 2.36390E+01
 -1      2745 2.90466E+01
 -1      2746 2.89003E+01
 -1      2747 2.34927E+01
 -1      2748 2.55988E+01
 -1      2749 2.79380E+01
 -1      2750 2.55404E+01
 -1      2751 2.78797E+01
 -1      2752 3.05052E+01
 -1      2753 2.48630E+01
 -1      2754 2.46952E+01
 -1      2755 2.47998E+01
 -1      2756 2.46321E+01
 -1      2757 3.04539E+01
 -1      2758 2.43536E+01
 -1      2759 3.04397E+01
 -1      2760 2.42904E+01
 -1      2761 3.03765E+01
 -1      2762 2.54297E+01
 -1      2763 2.55467E+01
 -1      2764 2.53713E+01
 -1      2765 2.54883E+01
 -1      2766 2.55636E+01
 -1      2767 2.53809E+01
 -1      2768 2.55005E+01
 -1      2769 2.53178E+01
 -1      2770 3.04539E+01
 -1      2771 2.79443E+01
 -1      2772 2.44454E+01
 -1      2773 2.37798E+01
 -1      2774 2.91165E+01
 -1      2775 2.72787E+01
 -1      2776 3.05080E+01
 -1      2777 2.52002E+01
 -1      2778 2.53376E+01
 -1      2779 2.52904E+01
 -1      2780 3.04699E+01
 -1      2781 2.51530E+01
 -1      2782 2.52133E+01
 -1      2783 2.80024E+01
 -1      2784 2.79552E+01
 -1      2785 2.51661E+01
 -1      2786 2.57244E+01
 -1      2787 2.83234E+01
 -1      2788 3.04747E+01
 -1      2789 2.45354E+01
 -1      2790 2.46782E+01
 -1      2791 2.45354E+01
 -1      2792 2.46782E+01
 -1      2793 2.43894E+01
 -1      2794 2.44949E+01
 -1      2795 2.39756E+01
 -1      2796 2.40811E+01
 -1      2797 2.93683E+01
 -1      2798 2.49613E+01
 -1      2799 2.44051E+01
 -1      2800 2.57820E+01
 -1      2801 2.59408E+01
 -1      2802 2.59408E+01
 -1      2803 3.06656E+01
 -1      2804 2.57820E+01
 -1      2805 2.55780E+01
 -1      2806 2.57288E+01
 -1      2807 2.55729E+01
 -1      2808 3.05377E+01
 -1      2809 2.79121E+01
 -1      2810 1.42789E+01
 -1      2811 1.44695E+01
 -1      2812 1.61660E+01
 -1      2813 1.80320E+01
 -1      2814 2.23825E+01
 -1      2815 2.82052E+01
 -1      2816 2.22584E+01
 -1      2817 2.19959E+01
 -1      2818 2.81230E+01
 -1      2819 2.22938E+01
 -1      2820 2.24252E+01
 -1      2821 2.45830E+01
 -1      2822 2.06102E+01
 -1      2823 2.45278E+01
 -1      2824 2.46904E+01
 -1      2825 2.01784E+01
 -1      2826 2.46141E+01
 -1      2827 2.16502E+01
 -1      2828 2.21379E+01
 -1      2829 2.17088E+01
 -1      2830 2.12778E+01
 -1      2831 2.55208E+01
 -1      2832 2.54038E+01
 -1      2833 2.51370E+01
 -1      2834 3.04539E+01
 -1      2835 2.52744E+01
 -1      2836 2.79392E+01
 -1      2837 2.51502E+01
 -1      2838 2.26366E+01
 -1      2839 2.24937E+01
 -1      2840 2.68707E+01
 -1      2841 2.35866E+01
 -1      2842 2.89491E+01
 -1      2843 2.24465E+01
 -1      2844 2.81006E+01
 -1      2845 2.22787E+01
 -1      2846 2.53809E+01
 -1      2847 2.55636E+01
 -1      2848 3.05171E+01
 -1      2849 2.80232E+01
 -1      2850 2.19371E+01
 -1      2851 1.90939E+01
 -1      2852 2.00929E+01
 -1      2853 2.54779E+01
 -1      2854 2.55831E+01
 -1      2855 2.44106E+01
 -1      2856 2.79095E+01
 -1      2857 2.97473E+01
 -1      2858 2.26026E+01
 -1      2859 2.63858E+01
 -1      2860 2.78128E+01
 -1      2861 2.43944E+01
 -1      2862 2.41135E+01
 -1      2863 2.31162E+01
 -1      2864 2.32816E+01
 -1      2865 1.65501E+01
 -1      2866 1.65501E+01
 -1      2867 1.67408E+01
 -1      2868 1.67408E+01
 -1      2869 2.47682E+01
 -1      2870 2.48322E+01
 -1      2871 2.41026E+01
 -1      2872 2.41666E+01
 -1      2873 2.52162E+01
 -1      2874 2.80268E+01
 -1      2875 2.51530E+01
 -1      2876 2.79636E+01
 -1      2877 2.77374E+01
 -1      2878 2.59101E+01
 -1      2879 2.77374E+01
 -1      2880 2.59101E+01
 -1      2881 2.81793E+01
 -1      2882 2.37015E+01
 -1      2883 2.34621E+01
 -1      2884 2.49703E+01
 -1      2885 2.45395E+01
 -1      2886 2.44341E+01
 -1      2887 2.98267E+01
 -1      2888 2.40118E+01
 -1      2889 3.04793E+01
 -1      2890 2.98267E+01
 -1      2891 2.40201E+01
 -1      2892 2.94129E+01
 -1      2893 2.36063E+01
 -1      2894 3.04067E+01
 -1      2895 1.76503E+01
 -1      2896 1.14587E+01
 -1      2897 1.19806E+01
 -1      2898 1.14687E+01
 -1      2899 2.80374E+01
 -1      2900 1.18463E+01
 -1      2901 1.72683E+01
 -1      2902 3.04254E+01
 -1      2903 3.04539E+01
 -1      2904 2.94129E+01
 -1      2905 2.90817E+01
 -1      2906 2.80268E+01
 -1      2907 2.52162E+01
 -1      2908 2.47974E+01
 -1      2909 2.47334E+01
 -1      2910 2.85510E+01
 -1      2911 2.41829E+01
 -1      2912 2.44216E+01
 -1      2913 2.92470E+01
 -1      2914 2.69607E+01
 -1      2915 2.90466E+01
 -1      2916 2.36390E+01
 -1      2917 2.43223E+01
 -1      2918 3.04640E+01
 -1      2919 3.04640E+01
 -1      2920 2.40647E+01
 -1      2921 2.98713E+01
 -1      2922 2.44788E+01
 -1      2923 2.44684E+01
 -1      2924 2.57924E+01
 -1      2925 3.06760E+01
 -1      2926 2.59512E+01
 -1      2927 3.30667E+01
 -1      2928 3.35027E+01
 -1      2929 3.27066E+01
 -1      2930 3.22706E+01
 -1      2931 3.22706E+01
 -1      2932 1.59642E+01
 -1      2933 1.41094E+01
 -1      2934 1.24129E+01
 -1      2935 1.59754E+01
 -1      2936 3.35027E+01
 -1      2937 2.59206E+01
 -1      2938 2.77479E+01
 -1      2939 2.91007E+01
 -1      2940 1.46842E+01
 -1      2941 1.46842E+01
 -1      2942 1.12041E+01
 -1      2943 1.08142E+01
 -1      2944 1.03363E+01
 -1      2945 3.04640E+01
 -1      2946 1.56078E+01
 -1      2947 1.68134E+01
 -1      2948 1.59977E+01
 -1      2949 3.06760E+01
 -1      2950 1.61660E+01
 -1      2951 1.31277E+01
 -1      2952 1.51008E+01
 -1      2953 1.62814E+01
 -1      2954 1.81405E+01
 -1      2955 2.01136E+01
 -1      2956 1.69599E+01
 -1      2957 1.29854E+01
 -1      2958 1.29528E+01
 -1      2959 1.92111E+01
 -1      2960 2.29887E+01
 -1      2961 2.30213E+01
 -1      2962 1.29539E+01
 -1      2963 1.49270E+01
 -1      2964 1.15996E+01
 -1      2965 1.49270E+01
 -1      2966 1.30646E+01
 -1      2967 1.28911E+01
 -1      2968 1.83130E+01
 -1      2969 2.53988E+01
 -1      2970 2.93347E+01
 -1      2971 2.85244E+01
 -1      2972 3.22706E+01
 -1      2973 3.27066E+01
 -1      2974 1.64525E+01
 -1      2975 1.55847E+01
 -1      2976 3.18766E+01
 -1      2977 2.60343E+01
 -1      2978 3.10805E+01
 -1      2979 3.06656E+01
 -1      2980 2.78309E+01
 -1      2981 2.78309E+01
 -1      2982 2.81341E+01
 -1      2983 2.52995E+01
 -1      2984 2.81341E+01
 -1      2985 2.64436E+01
 -1      2986 2.72461E+01
 -1      2987 2.72461E+01
 -1      2988 2.74148E+01
 -1      2989 2.82173E+01
 -1      2990 2.74148E+01
 -1      2991 1.28466E+01
 -1      2992 1.28858E+01
 -1      2993 1.23346E+01
 -1      2994 2.38256E+01
 -1      2995 2.30232E+01
 -1      2996 2.39944E+01
 -1      2997 3.14745E+01
 -1      2998 2.38332E+01
 -1      2999 2.89491E+01
 -1      3000 2.41311E+01
 -1      3001 2.23997E+01
 -1      3002 2.75156E+01
 -1      3003 2.72177E+01
 -1      3004 2.46112E+01
 -1      3005 3.06760E+01
 -1      3006 2.46007E+01
 -1      3007 2.45013E+01
 -1      3008 3.05662E+01
 -1      3009 3.05766E+01
 -1      3010 2.86512E+01
 -1      3011 2.89491E+01
 -1      3012 2.72177E+01
 -1      3013 2.17107E+01
 -1      3014 2.26819E+01
 -1      3015 1.96561E+01
 -1      3016 2.06273E+01
 -1      3017 2.75534E+01
 -1      3018 2.75430E+01
 -1      3019 2.74436E+01
 -1      3020 1.68465E+01
 -1      3021 1.70372E+01
 -1      3022 1.83070E+01
 -1      3023 1.90489E+01
 -1      3024 1.74731E+01
 -1      3025 2.42888E+01
 -1      3026 2.17574E+01
 -1      3027 2.37508E+01
 -1      3028 2.35152E+01
 -1      3029 2.08699E+01
 -1      3030 2.38903E+01
 -1      3031 2.35924E+01
 -1      3032 2.62623E+01
 -1      3033 2.84137E+01
 -1      3034 2.83766E+01
 -1      3035 2.20618E+01
 -1      3036 2.51944E+01
 -1      3037 2.66215E+01
 -1      3038 2.63858E+01
 -1      3039 2.86512E+01
 -1      3040 2.92470E+01
 -1      3041 2.92470E+01
 -1      3042 2.54967E+01
 -1      3043 2.54967E+01
 -1      3044 2.83766E+01
 -1      3045 2.63156E+01
 -1      3046 2.56203E+01
 -1      3047 2.55832E+01
 -1      3048 2.44780E+01
 -1      3049 2.44780E+01
 -1      3050 2.19466E+01
 -1      3051 2.75772E+01
 -1      3052 2.63858E+01
 -1      3053 1.85749E+01
 -1      3054 2.04475E+01
 -1      3055 1.90140E+01
 -1      3056 2.78309E+01
 -1      3057 1.88464E+01
 -1      3058 1.87484E+01
 -1      3059 2.41853E+01
 -1      3060 2.49793E+01
 -1      3061 2.50773E+01
 -1      3062 2.49231E+01
 -1      3063 2.43669E+01
 -1      3064 3.04608E+01
 -1      3065 2.30801E+01
 -1      3066 2.16466E+01
 -1      3067 1.83745E+01
 -1      3068 2.55859E+01
 -1      3069 2.07823E+01
 -1      3070 2.06724E+01
 -1      3071 2.79978E+01
 -1      3072 2.79500E+01
 -1      3073 2.43786E+01
 -1      3074 2.24285E+01
 -1      3075 2.83659E+01
 -1      3076 2.21189E+01
 -1      3077 3.04555E+01
 -1      3078 2.01317E+01
 -1      3079 2.20706E+01
 -1      3080 2.07675E+01
 -1      3081 2.01367E+01
 -1      3082 1.93607E+01
 -1      3083 2.02846E+01
 -1      3084 1.95086E+01
 -1      3085 2.21205E+01
 -1      3086 2.19727E+01
 -1      3087 2.20475E+01
 -1      3088 2.21454E+01
 -1      3089 2.20706E+01
 -1      3090 2.11806E+01
 -1      3091 2.19174E+01
 -1      3092 2.45830E+01
 -1      3093 2.45830E+01
 -1      3094 2.45278E+01
 -1      3095 2.46251E+01
 -1      3096 2.46904E+01
 -1      3097 2.45488E+01
 -1      3098 2.21589E+01
 -1      3099 2.46040E+01
 -1      3100 2.16225E+01
 -1      3101 2.46694E+01
 -1      3102 2.57029E+01
 -1      3103 2.55796E+01
 -1      3104 2.21126E+01
 -1      3105 2.26902E+01
 -1      3106 2.54372E+01
 -1      3107 2.55005E+01
 -1      3108 3.03765E+01
 -1      3109 2.10328E+01
 -1      3110 1.84208E+01
 -1      3111 2.11806E+01
 -1      3112 2.19727E+01
 -1      3113 2.00338E+01
 -1      3114 2.20706E+01
 -1      3115 2.19727E+01
 -1      3116 2.00929E+01
 -1      3117 2.42106E+01
 -1      3118 2.51026E+01
 -1      3119 3.04415E+01
 -1      3120 2.52002E+01
 -1      3121 2.25637E+01
 -1      3122 2.57895E+01
 -1      3123 2.81253E+01
 -1      3124 2.80259E+01
 -1      3125 2.28213E+01
 -1      3126 3.05171E+01
 -1      3127 2.08594E+01
 -1      3128 1.88091E+01
 -1      3129 3.05636E+01
 -1      3130 2.54297E+01
 -1      3131 3.01058E+01
 -1      3132 3.04990E+01
 -1      3133 3.04990E+01
 -1      3134 1.85318E+01
 -1      3135 2.41311E+01
 -1      3136 2.62140E+01
 -1      3137 2.80518E+01
 -1      3138 2.80170E+01
 -1      3139 1.67004E+01
 -1      3140 1.76774E+01
 -1      3141 1.84075E+01
 -1      3142 2.52060E+01
 -1      3143 2.98713E+01
 -1      3144 2.98267E+01
 -1      3145 2.98713E+01
 -1      3146 2.05819E+01
 -1      3147 2.59851E+01
 -1      3148 2.27646E+01
 -1      3149 2.80964E+01
 -1      3150 2.48768E+01
 -1      3151 2.97919E+01
 -1      3152 1.26375E+01
 -1      3153 1.28445E+01
 -1      3154 2.13656E+01
 -1      3155 2.15726E+01
 -1      3156 2.27464E+01
 -1      3157 1.84901E+01
 -1      3158 2.00800E+01
 -1      3159 2.10049E+01
 -1      3160 1.84734E+01
 -1      3161 2.06096E+01
 -1      3162 1.91914E+01
 -1      3163 1.60377E+01
 -1      3164 2.10505E+01
 -1      3165 1.72183E+01
 -1      3166 2.22830E+01
 -1      3167 2.84946E+01
 -1      3168 2.23916E+01
 -1      3169 2.27135E+01
 -1      3170 2.89251E+01
 -1      3171 2.88165E+01
 -1      3172 2.43019E+01
 -1      3173 2.41920E+01
 -1      3174 1.86274E+01
 -1      3175 1.94315E+01
 -1      3176 2.46904E+01
 -1      3177 2.46251E+01
 -1      3178 2.45830E+01
 -1      3179 2.45830E+01
 -1      3180 1.82548E+01
 -1      3181 1.81684E+01
 -1      3182 1.83951E+01
 -1      3183 1.84161E+01
 -1      3184 2.00338E+01
 -1      3185 2.97125E+01
 -1      3186 2.80170E+01
 -1      3187 2.98713E+01
 -1      3188 2.98713E+01
 -1      3189 1.45053E+01
 -1      3190 1.57965E+01
 -1      3191 1.67567E+01
 -1      3192 1.80479E+01
 -1      3193 1.60031E+01
 -1      3194 1.85725E+01
 -1      3195 2.09690E+01
 -1      3196 1.91941E+01
 -1      3197 2.20693E+01
 -1      3198 2.12874E+01
 -1      3199 2.13668E+01
 -1      3200 1.52717E+01
 -1      3201 2.07086E+01
 -1      3202 1.69817E+01
 -1      3203 1.27781E+01
 -1      3204 2.42109E+01
 -1      3205 2.50212E+01
 -1      3206 2.12892E+01
 -1      3207 9.84495E+00
 -1      3208 1.01393E+01
 -1      3209 1.04245E+01
 -1      3210 1.07189E+01
 -1      3211 1.03179E+01
 -1      3212 3.05662E+01
 -1      3213 2.52020E+01
 -1      3214 3.05409E+01
 -1      3215 2.51668E+01
 -1      3216 2.43707E+01
 -1      3217 2.42251E+01
 -1      3218 9.73677E+00
 -1      3219 1.62341E+01
 -1      3220 1.61275E+01
 -1      3221 1.60193E+01
 -1      3222 2.43566E+01
 -1      3223 1.24017E+01
 -1      3224 1.24017E+01
 -1      3225 1.76501E+01
 -1      3226 1.76501E+01
 -1      3227 1.30646E+01
 -1      3228 1.30254E+01
 -1      3229 1.25034E+01
 -1      3230 2.81105E+01
 -1      3231 2.82792E+01
 -1      3232 3.05118E+01
 -1      3233 3.04625E+01
 -1      3234 2.83368E+01
 -1      3235 2.91329E+01
 -1      3236 2.79428E+01
 -1      3237 3.16960E+01
 -1      3238 2.83368E+01
 -1      3239 3.08999E+01
 -1      3240 1.70531E+01
 -1      3241 2.39196E+01
 -1      3242 2.82173E+01
 -1      3243 2.35207E+01
 -1      3244 2.46923E+01
 -1      3245 2.92470E+01
 -1      3246 2.38903E+01
 -1      3247 2.20475E+01
 -1      3248 2.19727E+01
 -1      3249 2.19727E+01
 -1      3250 1.93607E+01
 -1      3251 2.01367E+01
 -1      3252 2.90466E+01
 -1      3253 2.92470E+01
 -1      3254 2.82792E+01
 -1      3255 2.74148E+01
 -1      3256 1.28911E+01
 -1      3257 1.29877E+01
 -1      3258 2.23986E+01
 -1      3259 2.67902E+01
 -1      3260 1.78413E+01
 -1      3261 1.71432E+01
 -1      3262 1.66176E+01
 -1      3263 1.73157E+01
 -1      3264 1.73157E+01
 -1      3265 3.08999E+01
 -1      3266 2.21454E+01
 -1      3267 2.20706E+01
 -1      3268 2.20706E+01
 -1      3269 2.02346E+01
 -1      3270 2.43100E+01
 -1      3271 1.28406E+01
 -1      3272 1.50920E+01
 -1      3273 2.10265E+01
 -1      3274 2.74436E+01
 -1      3275 2.80259E+01
 -1      3276 3.05662E+01
 -1      3277 2.79500E+01
 -1      3278 2.58414E+01
 -1      3279 2.53973E+01
 -1      3280 2.55725E+01
 -1      3281 2.10403E+01
 -1      3282 2.46386E+01
 -1      3283 1.42328E+01
 -1      3284 1.81186E+01
 -1      3285 2.17169E+01
 -1      3286 1.71952E+01
 -1      3287 1.20198E+01
 -1      3288 1.24017E+01
 -1      3289 1.68134E+01
 -1      3290 1.76501E+01
 -1      3291 1.21151E+01
 -1      3292 1.34464E+01
 -1      3293 1.09175E+01
 -1      3294 1.23346E+01
 -1      3295 1.24586E+01
 -1      3296 2.37996E+01
 -1      3297 2.25978E+01
 -1      3298 2.39785E+01
 -1      3299 1.02530E+01
 -1      3300 1.02631E+01
 -1      3301 1.49232E+01
 -1      3302 3.26925E+01
 -1      3303 3.14604E+01
 -1      3304 2.60343E+01
 -1      3305 3.18766E+01
 -1      3306 3.23126E+01
 -1      3307 9.77514E+00
 -1      3308 1.55776E+01
 -1      3309 1.66654E+01
 -1      3310 1.70243E+01
 -1      3311 1.71222E+01
 -1      3312 1.78615E+01
 -1      3313 1.79594E+01
 -1      3314 1.63466E+01
 -1      3315 1.74343E+01
 -1      3316 2.79407E+01
 -1      3317 1.00714E+01
 -1      3318 9.71962E+00
 -1      3319 1.53289E+01
 -1      3320 1.59977E+01
 -1      3321 1.56807E+01
 -1      3322 2.21239E+01
 -1      3323 2.58860E+01
 -1      3324 1.65353E+01
 -1      3325 2.17298E+01
 -1      3326 2.54920E+01
 -1      3327 1.71641E+01
 -1      3328 1.69576E+01
 -1      3329 1.64320E+01
 -1      3330 1.75223E+01
 -1      3331 1.77683E+01
 -1      3332 1.70361E+01
 -1      3333 1.56935E+01
 -1      3334 1.62622E+01
 -1      3335 2.25494E+01
 -1      3336 2.72461E+01
 -1      3337 2.74148E+01
 -1      3338 2.90466E+01
 -1      3339 2.44919E+01
 -1      3340 2.90466E+01
 -1      3341 2.64436E+01
 -1      3342 2.88462E+01
 -1      3343 1.99489E+01
 -1      3344 1.83531E+01
 -1      3345 1.14902E+01
 -1      3346 1.13440E+01
 -1      3347 2.07197E+01
 -1      3348 2.05736E+01
 -1      3349 2.22449E+01
 -1      3350 9.38450E+00
 -1      3351 9.38450E+00
 -1      3352 1.08016E+01
 -1      3353 3.09587E+01
 -1      3354 3.09587E+01
 -1      3355 3.09587E+01
 -1      3356 3.14745E+01
 -1      3357 3.09587E+01
 -1      3358 2.38311E+01
 -1      3359 3.18766E+01
 -1      3360 3.10805E+01
 -1      3361 2.86772E+01
 -1      3362 2.93889E+01
 -1      3363 1.94314E+01
 -1      3364 2.01432E+01
 -1      3365 2.01432E+01
 -1      3366 2.79428E+01
 -1      3367 1.41094E+01
 -1      3368 3.04159E+01
 -1      3369 3.04159E+01
 -1      3370 3.04376E+01
 -1      3371 3.05516E+01
 -1      3372 3.05516E+01
 -1      3373 3.05299E+01
 -1      3374 1.49127E+01
 -1      3375 1.57503E+01
 -1      3376 1.84158E+01
 -1      3377 1.55890E+01
 -1      3378 1.74481E+01
 -1      3379 2.01136E+01
 -1      3380 2.02749E+01
 -1      3381 1.84943E+01
 -1      3382 1.83171E+01
 -1      3383 1.83998E+01
 -1      3384 1.93350E+01
 -1      3385 1.91577E+01
 -1      3386 1.92522E+01
 -1      3387 3.05516E+01
 -1      3388 3.05299E+01
 -1      3389 3.06656E+01
 -1      3390 2.83643E+01
 -1      3391 2.58190E+01
 -1      3392 2.37225E+01
 -1      3393 2.37015E+01
 -1      3394 2.33968E+01
 -1      3395 2.33757E+01
 -1      3396 2.57693E+01
 -1      3397 3.20829E+01
 -1      3398 3.20898E+01
 -1      3399 3.08436E+01
 -1      3400 3.26925E+01
 -1      3401 3.08366E+01
 -1      3402 1.65082E+01
 -1      3403 1.93350E+01
 -1      3404 2.10328E+01
 -1      3405 1.92522E+01
 -1      3406 2.00929E+01
 -1      3407 2.73862E+01
 -1      3408 2.81446E+01
 -1      3409 1.39306E+01
 -1      3410 2.84137E+01
 -1      3411 1.74488E+01
 -1      3412 1.73509E+01
 -1      3413 1.63273E+01
 -1      3414 1.62294E+01
 -1      3415 3.06760E+01
 -1      3416 2.59512E+01
 -1      3417 3.05766E+01
 -1      3418 2.91611E+01
 -1      3419 3.28686E+01
 -1      3420 3.28323E+01
 -1      3421 2.80782E+01
 -1      3422 2.80419E+01
 -1      3423 2.73071E+01
 -1      3424 2.11869E+01
 -1      3425 2.10729E+01
 -1      3426 2.10875E+01
 -1      3427 3.04522E+01
 -1      3428 3.05662E+01
 -1      3429 2.76380E+01
 -1      3430 2.94129E+01
 -1      3431 3.01058E+01
 -1      3432 3.00676E+01
 -1      3433 3.06865E+01
 -1      3434 2.75534E+01
 -1      3435 2.77418E+01
 -1      3436 2.81142E+01
 -1      3437 2.82789E+01
 -1      3438 2.82789E+01
 -1      3439 2.86512E+01
 -1      3440 2.81142E+01
 -1      3441 3.04269E+01
 -1      3442 2.10622E+01
 -1      3443 3.04415E+01
 -1      3444 1.06529E+01
 -1      3445 9.98418E+00
 -1      3446 2.96226E+01
 -1      3447 3.01384E+01
 -1      3448 1.87132E+01
 -1      3449 2.55714E+01
 -1      3450 1.95288E+01
 -1      3451 1.96749E+01
 -1      3452 2.65332E+01
 -1      3453 2.57175E+01
 -1      3454 2.57175E+01
 -1      3455 2.47558E+01
 -1      3456 2.57175E+01
 -1      3457 2.66793E+01
 -1      3458 2.57175E+01
 -1      3459 1.52772E+01
 -1      3460 1.54498E+01
 -1      3461 2.26668E+01
 -1      3462 2.84946E+01
 -1      3463 2.26994E+01
 -1      3464 2.80534E+01
 -1      3465 2.80189E+01
 -1      3466 3.03882E+01
 -1      3467 3.04227E+01
 -1      3468 3.03882E+01
 -1      3469 2.80534E+01
 -1      3470 2.17073E+01
 -1      3471 3.04699E+01
 -1      3472 2.16601E+01
 -1      3473 2.16983E+01
 -1      3474 3.04608E+01
 -1      3475 3.05080E+01
 -1      3476 3.05171E+01
 -1      3477 3.05080E+01
 -1      3478 3.05080E+01
 -1      3479 1.03487E+01
 -1      3480 1.01055E+01
 -1      3481 1.06567E+01
 -1      3482 1.14687E+01
 -1      3483 1.08999E+01
 -1      3484 1.60053E+01
 -1      3485 1.54862E+01
 -1      3486 2.09806E+01
 -1      3487 2.50175E+01
 -1      3488 1.52709E+01
 -1      3489 1.82386E+01
 -1      3490 2.10328E+01
 -1      3491 2.19727E+01
 -1      3492 2.22308E+01
 -1      3493 2.05594E+01
 -1      3494 1.24017E+01
 -1      3495 2.89491E+01
 -1      3496 2.79816E+01
 -1      3497 2.25538E+01
 -1      3498 2.81006E+01
 -1      3499 3.04699E+01
 -1      3500 2.77418E+01
 -1      3501 2.81142E+01
 -1      3502 2.75772E+01
 -1      3503 1.80479E+01
 -1      3504 1.80479E+01
 -1      3505 1.75223E+01
 -1      3506 2.83860E+01
 -1      3507 3.09587E+01
 -1      3508 3.14745E+01
 -1      3509 1.48763E+01
 -1      3510 1.31090E+01
 -1      3511 1.56489E+01
 -1      3512 1.57145E+01
 -1      3513 1.75736E+01
 -1      3514 1.75080E+01
 -1      3515 1.17457E+01
 -1      3516 1.49165E+01
 -1      3517 1.50518E+01
 -1      3518 1.59869E+01
 -1      3519 1.58516E+01
 -1      3520 1.30434E+01
 -1      3521 1.56489E+01
 -1      3522 1.16104E+01
 -1      3523 1.49165E+01
 -1      3524 1.16104E+01
 -1      3525 1.49165E+01
 -1      3526 1.30434E+01
 -1      3527 1.56489E+01
 -1      3528 2.92470E+01
 -1      3529 3.04667E+01
 -1      3530 1.43940E+01
 -1      3531 1.42660E+01
 -1      3532 2.23725E+01
 -1      3533 2.22444E+01
 -1      3534 1.95987E+01
 -1      3535 2.46068E+01
 -1      3536 2.13431E+01
 -1      3537 1.44754E+01
 -1      3538 2.42128E+01
 -1      3539 2.09491E+01
 -1      3540 3.04269E+01
 -1      3541 2.01532E+01
 -1      3542 1.94415E+01
 -1      3543 2.66793E+01
 -1      3544 2.66793E+01
 -1      3545 2.57175E+01
 -1      3546 1.97261E+01
 -1      3547 2.65843E+01
 -1      3548 2.67305E+01
 -1      3549 3.04162E+01
 -1      3550 1.46281E+01
 -1      3551 2.75870E+01
 -1      3552 2.68522E+01
 -1      3553 1.56118E+01
 -1      3554 1.62112E+01
 -1      3555 2.53281E+01
 -1      3556 2.15487E+01
 -1      3557 2.09493E+01
 -1      3558 2.82052E+01
 -1      3559 3.05662E+01
 -1      3560 2.83605E+01
 -1      3561 2.83111E+01
 -1      3562 2.64436E+01
 -1      3563 2.21685E+01
 -1      3564 2.24942E+01
 -1      3565 2.25442E+01
 -1      3566 2.22184E+01
 -1      3567 2.63939E+01
 -1      3568 2.71176E+01
 -1      3569 2.86485E+01
 -1      3570 2.73694E+01
 -1      3571 2.89003E+01
 -1      3572 2.81468E+01
 -1      3573 3.05052E+01
 -1      3574 3.03907E+01
 -1      3575 2.84122E+01
 -1      3576 3.03907E+01
 -1      3577 3.05636E+01
 -1      3578 2.16601E+01
 -1      3579 3.04227E+01
 -1      3580 3.04608E+01
 -1      3581 3.03882E+01
 -1      3582 3.04227E+01
 -1      3583 2.84122E+01
 -1      3584 2.93016E+01
 -1      3585 2.99112E+01
 -1      3586 1.25081E+01
 -1      3587 1.19774E+01
 -1      3588 1.33088E+01
 -1      3589 1.33088E+01
 -1      3590 2.65332E+01
 -1      3591 2.55714E+01
 -1      3592 2.65332E+01
 -1      3593 1.16076E+01
 -1      3594 3.35671E+01
 -1      3595 2.75870E+01
 -1      3596 1.34464E+01
 -1      3597 9.91680E+00
 -1      3598 1.08501E+01
 -1      3599 3.05516E+01
 -1      3600 3.05516E+01
 -1      3601 3.06656E+01
 -1      3602 1.43977E+01
 -1      3603 1.82092E+01
 -1      3604 3.06656E+01
 -1      3605 2.07293E+01
 -1      3606 2.84121E+01
 -1      3607 1.98944E+01
 -1      3608 2.02988E+01
 -1      3609 2.79816E+01
 -1      3610 2.88165E+01
 -1      3611 1.93527E+01
 -1      3612 1.91755E+01
 -1      3613 2.01106E+01
 -1      3614 1.91914E+01
 -1      3615 2.10505E+01
 -1      3616 3.05662E+01
 -1      3617 2.63871E+01
 -1      3618 2.65843E+01
 -1      3619 1.41444E+01
 -1      3620 1.43469E+01
 -1      3621 2.33521E+01
 -1      3622 2.02418E+01
 -1      3623 2.00392E+01
 -1      3624 3.04608E+01
 -1      3625 3.04608E+01
 -1      3626 1.05948E+01
 -1      3627 2.14815E+01
 -1      3628 1.41944E+01
 -1      3629 1.41671E+01
 -1      3630 2.04712E+01
 -1      3631 2.41121E+01
 -1      3632 2.41394E+01
 -1      3633 2.01106E+01
 -1      3634 3.05409E+01
 -1      3635 2.55714E+01
 -1      3636 2.79654E+01
 -1      3637 1.94415E+01
 -1      3638 3.05080E+01
 -1      3639 2.89491E+01
 -1      3640 2.80915E+01
 -1      3641 1.43617E+01
 -1      3642 2.06658E+01
 -1      3643 2.41373E+01
 -1      3644 2.06911E+01
 -1      3645 2.80901E+01
 -1      3646 2.86272E+01
 -1      3647 2.86272E+01
 -1      3648 1.44215E+01
 -1      3649 2.19056E+01
 -1      3650 3.39387E+01
 -1      3651 1.19294E+01
 -1      3652 1.28406E+01
 -1      3653 1.50920E+01
 -1      3654 1.42652E+01
 -1      3655 2.32704E+01
 -1      3656 1.98113E+01
 -1      3657 2.28399E+01
 -1      3658 1.07254E+01
 -1      3659 1.02194E+01
 -1      3660 1.28406E+01
 -1      3661 1.16366E+01
 -1      3662 2.81446E+01
 -1      3663 3.39387E+01
 -1      3664 3.20898E+01
 -1      3665 2.04314E+01
 -1      3666 3.06865E+01
 -1      3667 1.15226E+01
 -1      3668 1.28858E+01
 -1      3669 1.39738E+01
 -1      3670 1.76709E+01
 -1      3671 1.62209E+01
 -1      3672 2.14154E+01
 -1      3673 2.80901E+01
 -1      3674 2.25582E+01
 -1      3675 2.83860E+01
 -1      3676 2.88165E+01
 -1      3677 1.61571E+01
 -1      3678 2.54282E+01
 -1      3679 1.31829E+01
 -1      3680 1.31829E+01
 -1      3681 1.57777E+01
 -1      3682 1.59823E+01
 -1      3683 1.57777E+01
 -1      3684 1.26023E+01
 -1      3685 1.54017E+01
 -1      3686 1.67402E+01
 -1      3687 1.65356E+01
 -1      3688 2.27047E+01
 -1      3689 2.25962E+01
 -1      3690 1.73062E+01
 -1      3691 1.82284E+01
 -1      3692 1.98681E+01
 -1      3693 2.07903E+01
 -1      3694 3.05409E+01
 -1      3695 3.04415E+01
 -1      3696 2.43791E+01
 -1      3697 2.42797E+01
 -1      3698 1.08975E+01
 -1      3699 1.00524E+01
 -1      3700 1.00524E+01
 -1      3701 1.25034E+01
 -1      3702 1.16583E+01
 -1      3703 1.47363E+01
 -1      3704 2.42230E+01
 -1      3705 2.09509E+01
 -1      3706 2.10649E+01
 -1      3707 2.43370E+01
 -1      3708 1.45220E+01
 -1      3709 2.07366E+01
 -1      3710 1.45439E+01
 -1      3711 2.42449E+01
 -1      3712 1.83972E+01
 -1      3713 2.43928E+01
 -1      3714 1.48406E+01
 -1      3715 2.09596E+01
 -1      3716 1.24476E+01
 -1      3717 1.71672E+01
 -1      3718 1.29054E+01
 -1      3719 1.79066E+01
 -1      3720 1.43269E+01
 -1      3721 1.78499E+01
 -1      3722 1.38835E+01
 -1      3723 1.38027E+01
 -1      3724 1.87728E+01
 -1      3725 1.67215E+01
 -1      3726 1.48913E+01
 -1      3727 2.16788E+01
 -1      3728 1.45020E+01
 -1      3729 1.92667E+01
 -1      3730 1.48952E+01
 -1      3731 1.92534E+01
 -1      3732 1.41541E+01
 -1      3733 2.12450E+01
 -1      3734 1.47762E+01
 -1      3735 1.51212E+01
 -1      3736 1.85960E+01
 -1      3737 2.43547E+01
 -1      3738 2.11573E+01
 -1      3739 1.49947E+01
 -1      3740 2.04565E+01
 -1      3741 1.50093E+01
 -1      3742 2.35073E+01
 -1      3743 1.54264E+01
 -1      3744 2.03908E+01
 -1      3745 1.68036E+01
 -1      3746 2.17100E+01
 -1      3747 1.62864E+01
 -1      3748 2.50232E+01
 -1      3749 1.51981E+01
 -1      3750 2.32581E+01
 -1      3751 1.67837E+01
 -1      3752 2.16769E+01
 -1      3753 1.65024E+01
 -1      3754 2.52386E+01
 -1      3755 2.03964E+01
 -1      3756 1.89099E+01
 -1      3757 1.51083E+01
 -1      3758 1.65046E+01
 -1      3759 2.17423E+01
 -1      3760 1.49015E+01
 -1      3761 1.84179E+01
 -1      3762 2.43791E+01
 -1      3763 2.10860E+01
 -1      3764 1.62990E+01
 -1      3765 1.58067E+01
 -1      3766 2.15555E+01
 -1      3767 2.46739E+01
 -1      3768 1.63312E+01
 -1      3769 2.49797E+01
 -1      3770 1.83808E+01
 -1      3771 2.43203E+01
 -1      3772 1.50346E+01
 -1      3773 2.11403E+01
 -1      3774 2.89251E+01
 -1      3775 2.84946E+01
 -1      3776 1.49435E+01
 -1      3777 1.98428E+01
 -1      3778 1.79567E+01
 -1      3779 1.30437E+01
 -1      3780 2.08045E+01
 -1      3781 1.89185E+01
 -1      3782 1.58928E+01
 -1      3783 2.07810E+01
 -1      3784 1.25081E+01
 -1      3785 1.50084E+01
 -1      3786 2.39398E+01
 -1      3787 1.48314E+01
 -1      3788 2.45688E+01
 -1      3789 2.71103E+01
 -1      3790 2.37621E+01
 -1      3791 1.69336E+01
 -1      3792 2.54842E+01
 -1      3793 2.21359E+01
 -1      3794 2.18934E+01
 -1      3795 1.81684E+01
 -1      3796 1.43777E+01
 -1      3797 2.42627E+01
 -1      3798 2.05377E+01
 -1      3799 2.46353E+01
 -1      3800 2.10424E+01
 -1      3801 1.51606E+01
 -1      3802 2.46263E+01
 -1      3803 2.10334E+01
 -1      3804 1.19294E+01
 -1      3805 2.07479E+01
 -1      3806 1.92356E+01
 -1      3807 1.35964E+01
 -1      3808 1.98459E+01
 -1      3809 1.83336E+01
 -1      3810 2.54850E+01
 -1      3811 2.04040E+01
 -1      3812 1.85874E+01
 -1      3813 1.42356E+01
 -1      3814 2.03386E+01
 -1      3815 1.85220E+01
 -1      3816 2.46904E+01
 -1      3817 2.29095E+01
 -1      3818 2.21918E+01
 -1      3819 2.27288E+01
 -1      3820 2.01358E+01
 -1      3821 1.96137E+01
 -1      3822 1.45720E+01
 -1      3823 2.06897E+01
 -1      3824 2.16536E+01
 -1      3825 2.49668E+01
 -1      3826 3.03904E+01
 -1      3827 2.11289E+01
 -1      3828 2.43264E+01
 -1      3829 3.03624E+01
 -1      3830 1.63534E+01
 -1      3831 1.72885E+01
 -1      3832 1.89312E+01
 -1      3833 2.07903E+01
 -1      3834 2.51345E+01
 -1      3835 2.52485E+01
 -1      3836 2.42651E+01
 -1      3837 2.14347E+01
 -1      3838 2.43791E+01
 -1      3839 1.22011E+01
 -1      3840 1.23907E+01
 -1      3841 2.09941E+01
 -1      3842 1.80759E+01
 -1      3843 1.30604E+01
 -1      3844 1.38172E+01
 -1      3845 1.77652E+01
 -1      3846 1.99202E+01
 -1      3847 1.31355E+01
 -1      3848 1.93850E+01
 -1      3849 1.23412E+01
 -1      3850 1.75392E+01
 -1      3851 1.34337E+01
 -1      3852 1.38265E+01
 -1      3853 1.98341E+01
 -1      3854 2.39336E+01
 -1      3855 1.58428E+01
 -1      3856 1.45354E+01
 -1      3857 2.03462E+01
 -1      3858 2.45232E+01
 -1      3859 2.08582E+01
 -1      3860 2.41513E+01
 -1      3861 3.03358E+01
 -1      3862 2.16428E+01
 -1      3863 2.48801E+01
 -1      3864 3.02912E+01
 -1      3865 1.45589E+01
 -1      3866 2.38087E+01
 -1      3867 1.49804E+01
 -1      3868 2.02920E+01
 -1      3869 1.90855E+01
 -1      3870 2.22443E+01
 -1      3871 2.80170E+01
 -1      3872 1.35979E+01
 -1      3873 1.46338E+01
 -1      3874 2.18698E+01
 -1      3875 1.80496E+01
 -1      3876 1.34383E+01
 -1      3877 1.97376E+01
 -1      3878 2.13311E+01
 -1      3879 2.41468E+01
 -1      3880 1.56327E+01
 -1      3881 2.13442E+01
 -1      3882 2.41598E+01
 -1      3883 2.98583E+01
 -1      3884 1.39096E+01
 -1      3885 2.00696E+01
 -1      3886 3.04162E+01
 -1      3887 2.88165E+01
 -1      3888 2.83860E+01
 -1      3889 1.37411E+01
 -1      3890 2.40941E+01
 -1      3891 1.46157E+01
 -1      3892 2.04885E+01
 -1      3893 1.40095E+01
 -1      3894 1.44236E+01
 -1      3895 2.01351E+01
 -1      3896 2.37457E+01
 -1      3897 1.46618E+01
 -1      3898 2.45615E+01
 -1      3899 2.46694E+01
 -1      3900 1.84815E+01
 -1      3901 2.46904E+01
 -1      3902 1.90704E+01
 -1      3903 2.54850E+01
 -1      3904 2.54850E+01
 -1      3905 3.04415E+01
 -1      3906 1.48031E+01
 -1      3907 1.48891E+01
 -1      3908 2.31436E+01
 -1      3909 2.03968E+01
 -1      3910 2.30575E+01
 -1      3911 1.90237E+01
 -1      3912 1.99949E+01
 -1      3913 2.83766E+01
 -1      3914 2.83766E+01
 -1      3915 1.99480E+01
 -1      3916 2.01485E+01
 -1      3917 2.97125E+01
 -1      3918 2.97125E+01
 -1      3919 2.13860E+01
 -1      3920 2.23572E+01
 -1      3921 2.98583E+01
 -1      3922 2.98583E+01
 -1      3923 2.29500E+01
 -1      3924 2.31505E+01
 -1      3925 1.43865E+01
 -1      3926 2.43971E+01
 -1      3927 2.97919E+01
 -1      3928 2.08896E+01
 -1      3929 2.08701E+01
 -1      3930 2.75772E+01
 -1      3931 2.63858E+01
 -1      3932 2.97789E+01
 -1      3933 2.13538E+01
 -1      3934 1.66306E+01
 -1      3935 2.18329E+01
 -1      3936 1.05539E+01
 -1      3937 1.30050E+01
 -1      3938 1.67962E+01
 -1      3939 2.56497E+01
 -1      3940 2.14765E+01
 -1      3941 2.13666E+01
 -1      3942 1.19006E+01
 -1      3943 1.30050E+01
 -1      3944 2.09593E+01
 -1      3945 2.11871E+01
 -1      3946 3.04488E+01
 -1      3947 2.10723E+01
 -1      3948 3.02210E+01
 -1      3949 1.18313E+01
 -1      3950 1.29132E+01
 -1      3951 2.12111E+01
 -1      3952 3.02494E+01
 -1      3953 2.13524E+01
 -1      3954 2.13241E+01
 -1      3955 2.18862E+01
 -1      3956 2.19857E+01
 -1      3957 3.03624E+01
 -1      3958 2.19573E+01
 -1      3959 3.02629E+01
 -1      3960 3.03192E+01
 -1      3961 3.03904E+01
 -1      3962 3.02628E+01
 -1      3963 3.02628E+01
 -1      3964 3.03340E+01
 -1      3965 3.03482E+01
 -1      3966 3.03765E+01
 -1      3967 3.03482E+01
 -1      3968 3.03624E+01
 -1      3969 2.17013E+01
 -1      3970 3.03193E+01
 -1      3971 2.18289E+01
 -1      3972 2.17725E+01
 -1      3973 2.52958E+01
 -1      3974 2.51859E+01
 -1      3975 3.02494E+01
 -1      3976 3.02494E+01
 -1      3977 3.01080E+01
 -1      3978 3.01499E+01
 -1      3979 3.01499E+01
 -1      3980 2.30267E+01
 -1      3981 1.63693E+01
 -1      3982 1.89312E+01
 -1      3983 1.82545E+01
 -1      3984 3.01824E+01
 -1      3985 3.04102E+01
 -1      3986 3.02242E+01
 -1      3987 3.03777E+01
 -1      3988 1.35798E+01
 -1      3989 2.07556E+01
 -1      3990 1.22893E+01
 -1      3991 2.42544E+01
 -1      3992 1.44750E+01
 -1      3993 2.06677E+01
 -1      3994 1.41914E+01
 -1      3995 2.39613E+01
 -1      3996 1.57504E+01
 -1      3997 1.95445E+01
 -1      3998 1.30646E+01
 -1      3999 3.04162E+01
 -1      4000 1.39064E+01
 -1      4001 1.93186E+01
 -1      4002 2.21649E+01
 -1      4003 2.09735E+01
 -1      4004 1.81273E+01
 -1      4005 1.46881E+01
 -1      4006 3.04747E+01
 -1      4007 3.39387E+01
 -1      4008 2.67816E+01
 -1      4009 2.65629E+01
 -1      4010 2.65629E+01
 -1      4011 2.67816E+01
 -1      4012 2.65629E+01
 -1      4013 2.67816E+01
 -1      4014 1.59100E+01
 -1      4015 1.11164E+01
 -1      4016 2.46141E+01
 -1      4017 2.54298E+01
 -1      4018 2.78128E+01
 -1      4019 2.98136E+01
 -1      4020 2.97473E+01
 -1      4021 1.42620E+01
 -1      4022 2.25205E+01
 -1      4023 1.86067E+01
 -1      4024 2.19003E+01
 -1      4025 1.92458E+01
 -1      4026 1.94645E+01
 -1      4027 1.94133E+01
 -1      4028 2.67305E+01
 -1      4029 2.65118E+01
 -1      4030 1.43814E+01
 -1      4031 1.94381E+01
 -1      4032 1.77683E+01
 -1      4033 1.49398E+01
 -1      4034 1.43051E+01
 -1      4035 1.98748E+01
 -1      4036 2.57687E+01
 -1      4037 1.88619E+01
 -1      4038 1.98236E+01
 -1      4039 3.02494E+01
 -1      4040 3.04772E+01
 -1      4041 3.03624E+01
 -1      4042 3.02912E+01
 -1      4043 3.03907E+01
 -1      4044 3.03624E+01
 -1      4045 3.03907E+01
 -1      4046 3.04188E+01
 -1      4047 2.65118E+01
 -1      4048 1.93579E+01
 -1      4049 1.91904E+01
 -1      4050 2.65629E+01
 -1      4051 1.94090E+01
 -1      4052 1.38720E+01
 -1      4053 1.64553E+01
 -1      4054 3.01339E+01
 -1      4055 3.01339E+01
 -1      4056 2.98452E+01
 -1      4057 3.01339E+01
 -1      4058 3.01339E+01
 -1      4059 3.01721E+01
 -1      4060 2.18927E+01
 -1      4061 2.15658E+01
 -1      4062 2.18545E+01
 -1      4063 1.61316E+01
 -1      4064 2.67816E+01
 -1      4065 2.67816E+01
 -1      4066 2.65843E+01
 -1      4067 2.65843E+01
 -1      4068 2.63443E+01
 -1      4069 2.65629E+01
 -1      4070 1.98597E+01
 -1      4071 2.66793E+01
 -1      4072 2.65614E+01
 -1      4073 2.65614E+01
 -1      4074 2.66793E+01
 -1      4075 2.65614E+01
 -1      4076 2.13658E+01
 -1      4077 1.95492E+01
 -1      4078 1.80486E+01
 -1      4079 1.94720E+01
 -1      4080 2.14636E+01
 -1      4081 1.84892E+01
 -1      4082 1.46972E+01
 -1      4083 1.39650E+01
 -1      4084 1.45513E+01
 -1      4085 1.38191E+01
 -1      4086 1.80880E+01
 -1      4087 2.14199E+01
 -1      4088 1.81852E+01
 -1      4089 2.10335E+01
 -1      4090 1.93390E+01
 -1      4091 1.53800E+01
 -1      4092 1.67760E+01
 -1      4093 2.00613E+01
 -1      4094 1.39535E+01
 -1      4095 1.09940E+01
 -1      4096 1.45570E+01
 -1      4097 2.12284E+01
 -1      4098 2.16199E+01
 -1      4099 2.44355E+01
 -1      4100 2.02683E+01
 -1      4101 1.88286E+01
 -1      4102 2.80904E+01
 -1      4103 2.00999E+01
 -1      4104 2.41488E+01
 -1      4105 2.03708E+01
 -1      4106 2.14250E+01
 -1      4107 2.23753E+01
 -1      4108 2.62623E+01
 -1      4109 2.57693E+01
 -1      4110 2.57693E+01
 -1      4111 2.09306E+01
 -1      4112 2.33968E+01
 -1      4113 2.33968E+01
 -1      4114 2.04652E+01
 -1      4115 2.34257E+01
 -1      4116 2.34257E+01
 -1      4117 1.92400E+01
 -1      4118 2.65614E+01
 -1      4119 2.29735E+01
 -1      4120 2.63939E+01
 -1      4121 2.65614E+01
 -1      4122 2.19857E+01
 -1      4123 3.03624E+01
 -1      4124 1.93739E+01
 -1      4125 2.82709E+01
 -1      4126 2.65843E+01
 -1      4127 2.63657E+01
 -1      4128 2.18873E+01
 -1      4129 3.03777E+01
 -1      4130 2.80191E+01
 -1      4131 3.03765E+01
 -1      4132 1.87755E+01
 -1      4133 2.56823E+01
 -1      4134 2.56823E+01
 -1      4135 2.59454E+01
 -1      4136 2.60529E+01
 -1      4137 2.93587E+01
 -1      4138 2.93587E+01
 -1      4139 1.77815E+01
 -1      4140 2.24960E+01
 -1      4141 2.43642E+01
 -1      4142 1.60858E+01
 -1      4143 2.13791E+01
 -1      4144 2.62091E+01
 -1      4145 1.81715E+01
 -1      4146 1.61845E+01
 -1      4147 1.64229E+01
 -1      4148 1.77161E+01
 -1      4149 1.34386E+01
 -1      4150 1.85508E+01
 -1      4151 1.85240E+01
 -1      4152 2.12589E+01
 -1      4153 1.76459E+01
 -1      4154 1.39661E+01
 -1      4155 1.88323E+01
 -1      4156 2.11926E+01
 -1      4157 1.82285E+01
 -1      4158 1.81718E+01
 -1      4159 2.10291E+01
 -1      4160 2.98583E+01
 -1      4161 3.01470E+01
 -1      4162 1.40519E+01
 -1      4163 2.00303E+01
 -1      4164 1.38260E+01
 -1      4165 2.82709E+01
 -1      4166 2.11190E+01
 -1      4167 2.40912E+01
 -1      4168 2.14994E+01
 -1      4169 3.01058E+01
 -1      4170 2.04017E+01
 -1      4171 3.04102E+01
 -1      4172 2.97125E+01
 -1      4173 1.84403E+01
 -1      4174 1.82465E+01
 -1      4175 2.05539E+01
 -1      4176 2.12334E+01
 -1      4177 2.02441E+01
 -1      4178 1.65084E+01
 -1      4179 1.78913E+01
 -1      4180 1.83519E+01
 -1      4181 1.88133E+01
 -1      4182 1.67952E+01
 -1      4183 2.15782E+01
 -1      4184 2.02539E+01
 -1      4185 1.80224E+01
 -1      4186 1.86731E+01
 -1      4187 2.11970E+01
 -1      4188 1.84487E+01
 -1      4189 2.17068E+01
 -1      4190 1.81943E+01
 -1      4191 2.18650E+01
 -1      4192 2.46531E+01
 -1      4193 2.11811E+01
 -1      4194 2.02279E+01
 -1      4195 1.84352E+01
 -1      4196 1.86405E+01
 -1      4197 2.32940E+01
 -1      4198 2.40649E+01
 -1      4199 1.28286E+01
 -1      4200 1.24371E+01
 -1      4201 1.92955E+01
 -1      4202 2.04463E+01
 -1      4203 2.11878E+01
 -1      4204 2.21071E+01
 -1      4205 2.50080E+01
 -1      4206 2.20237E+01
 -1      4207 2.39244E+01
 -1      4208 2.07344E+01
 -1      4209 3.05052E+01
 -1      4210 3.04772E+01
 -1      4211 3.04625E+01
 -1      4212 2.24942E+01
 -1      4213 2.33205E+01
 -1      4214 2.33704E+01
 -1      4215 2.63939E+01
 -1      4216 2.63657E+01
 -1      4217 2.64153E+01
 -1      4218 2.64153E+01
 -1      4219 2.71964E+01
 -1      4220 2.55714E+01
 -1      4221 2.54850E+01
 -1      4222 2.83605E+01
 -1      4223 2.81187E+01
 -1      4224 2.87027E+01
 -1      4225 2.77832E+01
 -1      4226 2.93141E+01
 -1      4227 1.21313E+01
 -1      4228 1.40473E+01
 -1      4229 1.29787E+01
 -1      4230 1.36933E+01
 -1      4231 1.34265E+01
 -1      4232 1.82881E+01
 -1      4233 1.42126E+01
 -1      4234 1.43712E+01
 -1      4235 1.54435E+01
 -1      4236 3.03907E+01
 -1      4237 3.03907E+01
 -1      4238 2.97789E+01
 -1      4239 3.01721E+01
 -1      4240 3.01058E+01
 -1      4241 2.84122E+01
 -1      4242 1.46757E+01
 -1      4243 1.43139E+01
 -1      4244 1.42497E+01
 -1      4245 3.01852E+01
 -1      4246 3.04699E+01
 -1      4247 1.50868E+01
 -1      4248 1.44993E+01
 -1      4249 1.56322E+01
 -1      4250 1.94329E+01
 -1      4251 1.80846E+01
 -1      4252 2.09452E+01
 -1      4253 2.17967E+01
 -1      4254 1.84391E+01
 -1      4255 1.93846E+01
 -1      4256 2.15555E+01
 -1      4257 2.04941E+01
 -1      4258 2.46739E+01
 -1      4259 1.47868E+01
 -1      4260 1.44050E+01
 -1      4261 1.94784E+01
 -1      4262 1.56469E+01
 -1      4263 1.16837E+01
 -1      4264 1.25288E+01
 -1      4265 1.40155E+01
 -1      4266 1.95636E+01
 -1      4267 2.01432E+01
 -1      4268 1.37035E+01
 -1      4269 1.11438E+01
 -1      4270 2.20789E+01
 -1      4271 2.05111E+01
 -1      4272 3.06656E+01
 -1      4273 2.10505E+01
 -1      4274 1.89848E+01
 -1      4275 3.05887E+01
 -1      4276 1.98795E+01
 -1      4277 3.03076E+01
 -1      4278 2.80782E+01
 -1      4279 2.47461E+01
 -1      4280 1.35738E+01
 -1      4281 1.11887E+01
 -1      4282 2.89251E+01
 -1      4283 2.17745E+01
 -1      4284 2.93889E+01
 -1      4285 2.83258E+01
 -1      4286 3.06865E+01
 -1      4287 2.25572E+01
 -1      4288 1.79018E+01
 -1      4289 1.94347E+01
 -1      4290 1.40399E+01
 -1      4291 1.15583E+01
 -1      4292 1.56515E+01
 -1      4293 2.12400E+01
 -1      4294 2.17928E+01
 -1      4295 2.32613E+01
 -1      4296 1.13503E+01
 -1      4297 1.36714E+01
 -1      4298 2.05391E+01
 -1      4299 2.22857E+01
 -1      4300 2.28722E+01
 -1      4301 3.05419E+01
 -1      4302 2.45618E+01
 -1      4303 2.75870E+01
 -1      4304 1.68922E+01
 -1      4305 1.26898E+01
 -1      4306 2.25918E+01
 -1      4307 2.15808E+01
 -1      4308 2.80782E+01
 -1      4309 1.15048E+01
 -1      4310 1.55887E+01
 -1      4311 2.24171E+01
 -1      4312 2.30265E+01
 -1      4313 2.14776E+01
 -1      4314 1.87426E+01
 -1      4315 1.23573E+01
 -1      4316 1.25012E+01
 -1      4317 2.38422E+01
 -1      4318 3.36397E+01
 -1      4319 3.36397E+01
 -1      4320 3.03076E+01
 -1      4321 2.05439E+01
 -1      4322 2.20760E+01
 -1      4323 1.29101E+01
 -1      4324 2.79587E+01
 -1      4325 1.20936E+01
 -1      4326 2.14609E+01
 -1      4327 1.23205E+01
 -1      4328 2.19932E+01
 -1      4329 1.29299E+01
 -1      4330 1.69378E+01
 -1      4331 1.90486E+01
 -1      4332 1.76657E+01
 -1      4333 1.95802E+01
 -1      4334 1.80235E+01
 -1      4335 1.71408E+01
 -1      4336 2.13148E+01
 -1      4337 1.87909E+01
 -1      4338 1.83557E+01
 -1      4339 1.73945E+01
 -1      4340 1.82384E+01
 -1      4341 2.10033E+01
 -1      4342 2.41087E+01
 -1      4343 1.99109E+01
 -1      4344 2.04380E+01
 -1      4345 1.78981E+01
 -1      4346 1.87173E+01
 -1      4347 2.19754E+01
 -1      4348 2.04036E+01
 -1      4349 2.11528E+01
 -1      4350 2.46248E+01
 -1      4351 2.38065E+01
 -1      4352 2.00020E+01
 -1      4353 2.07405E+01
 -1      4354 2.48221E+01
 -1      4355 2.04547E+01
 -1      4356 2.10019E+01
 -1      4357 2.79520E+01
 -1      4358 1.94347E+01
 -1      4359 2.39443E+01
 -1      4360 1.96851E+01
 -1      4361 2.04777E+01
 -1      4362 2.44582E+01
 -1      4363 2.11277E+01
 -1      4364 2.03770E+01
 -1      4365 1.38464E+01
 -1      4366 1.84884E+01
 -1      4367 2.20769E+01
 -1      4368 1.77194E+01
 -1      4369 1.93746E+01
 -1      4370 1.60027E+01
 -1      4371 1.94230E+01
 -1      4372 2.08726E+01
 -1      4373 1.07552E+01
 -1      4374 1.05746E+01
 -1      4375 2.15100E+01
 -1      4376 2.02483E+01
 -1      4377 2.91294E+01
 -1      4378 2.61746E+01
 -1      4379 2.09495E+01
 -1      4380 1.99147E+01
 -1      4381 2.42000E+01
 -1      4382 2.07219E+01
 -1      4383 1.05464E+01
 -1      4384 1.05257E+01
 -1      4385 2.09784E+01
 -1      4386 1.39725E+01
 -1      4387 1.23212E+01
 -1      4388 1.91217E+01
 -1      4389 2.13532E+01
 -1      4390 1.81233E+01
 -1      4391 2.25572E+01
 -1      4392 1.39306E+01
 -1      4393 3.35671E+01
 -1      4394 3.21546E+01
 -1      4395 1.40468E+01
 -1      4396 1.11952E+01
 -1      4397 1.20986E+01
 -1      4398 1.35738E+01
 -1      4399 1.11887E+01
 -1      4400 1.36239E+01
 -1      4401 1.11887E+01
 -1      4402 1.03575E+01
 -1      4403 1.75111E+01
 -3
 9999
